Graphene-Borophene Top with lattice para
   1.00000000000000     
     4.3119404854427197    2.4895000000000000    0.0000000000000000
    -4.3119404854427197    2.4895000000000000    0.0000000000000000
     0.0000000000000000    0.0000000000000000   15.0000000000000000
   B    C 
     8     8
Direct
  0.6685334059117632  0.0000355850439093  0.1014808743482200
  0.3315011791321489  0.0000355850439093  0.1014808743482200
 -0.0000355850439093  0.3314655940882396  0.1014808743482200
 -0.0000355850439092  0.6684978208678534  0.1014808743482200
  0.3315011791321489  0.3314655940882396  0.1014808743482200
  0.6685334059117632  0.6684978208678534  0.1014808743482200
  0.6666659999999993  0.3333330000000032  0.0884313950902728
  0.3333330000000032  0.6666659999999993  0.1143374962444517
  0.1666514778820609  0.3333039557641264  0.3345873760242320
  0.3333357127911707  0.1666673563955831  0.3344910498158262
  0.1666514778820609  0.8333475221179414  0.3345873760242320
  0.3333330000000032  0.6666659999999993  0.3346378777852454
  0.6666659999999993  0.3333330000000032  0.3344727072705336
  0.8333316436044196  0.1666673563955831  0.3344910498158262
  0.6666950442358757  0.8333475221179414  0.3345873760242320
  0.8333316436044196  0.6666632872088314  0.3344910498158262
 
  0.00000000E+00  0.00000000E+00  0.00000000E+00
  0.00000000E+00  0.00000000E+00  0.00000000E+00
  0.00000000E+00  0.00000000E+00  0.00000000E+00
  0.00000000E+00  0.00000000E+00  0.00000000E+00
  0.00000000E+00  0.00000000E+00  0.00000000E+00
  0.00000000E+00  0.00000000E+00  0.00000000E+00
  0.00000000E+00  0.00000000E+00  0.00000000E+00
  0.00000000E+00  0.00000000E+00  0.00000000E+00
  0.00000000E+00  0.00000000E+00  0.00000000E+00
  0.00000000E+00  0.00000000E+00  0.00000000E+00
  0.00000000E+00  0.00000000E+00  0.00000000E+00
  0.00000000E+00  0.00000000E+00  0.00000000E+00
  0.00000000E+00  0.00000000E+00  0.00000000E+00
  0.00000000E+00  0.00000000E+00  0.00000000E+00
  0.00000000E+00  0.00000000E+00  0.00000000E+00
  0.00000000E+00  0.00000000E+00  0.00000000E+00
