Graphene-BC3 Top with lattice parameter 
   1.00000000000000     
     4.3387872729600367    2.5049999999999994    0.0000000000000000
    -4.3387872729600367    2.5049999999999994    0.0000000000000000
     0.0000000000000000    0.0000000000000000   15.0000000000000000
   B    C 
     2    14
Direct
  0.3383343312049132  0.6691672789588372  0.1002452322482655
  0.6716672117719620  0.3358335298438006  0.1002452278002044
  0.1648372639435110  0.3221696596984888  0.0999212646105758
  0.3246723015569588  0.1623360702483911  0.0999201869220193
  0.1648381539586943  0.8426680208383767  0.0999212590277529
  0.8451708184874370  0.1623338049934607  0.0999229977872334
  0.6853392829476006  0.8426687511397627  0.0999236569891791
  0.8451720476781377  0.6828361632565242  0.0999229864177177
  0.1665721547792147  0.3331505523657541  0.3288723584152065
  0.3331483140762546  0.1665739583789911  0.3288734676511188
  0.1665721572010782  0.8334212166789177  0.3288723580435249
  0.3333272653602727  0.6666634361620490  0.3285751928996414
  0.6666606393423221  0.3333301267336273  0.3285751902865868
  0.8334190489354285  0.1665744497544490  0.3288699680350614
  0.6668419647990811  0.8334207899483913  0.3288686855509934
  0.8334190439571534  0.6668441910001874  0.3288699673149393
 
  0.00000000E+00  0.00000000E+00  0.00000000E+00
  0.00000000E+00  0.00000000E+00  0.00000000E+00
  0.00000000E+00  0.00000000E+00  0.00000000E+00
  0.00000000E+00  0.00000000E+00  0.00000000E+00
  0.00000000E+00  0.00000000E+00  0.00000000E+00
  0.00000000E+00  0.00000000E+00  0.00000000E+00
  0.00000000E+00  0.00000000E+00  0.00000000E+00
  0.00000000E+00  0.00000000E+00  0.00000000E+00
  0.00000000E+00  0.00000000E+00  0.00000000E+00
  0.00000000E+00  0.00000000E+00  0.00000000E+00
  0.00000000E+00  0.00000000E+00  0.00000000E+00
  0.00000000E+00  0.00000000E+00  0.00000000E+00
  0.00000000E+00  0.00000000E+00  0.00000000E+00
  0.00000000E+00  0.00000000E+00  0.00000000E+00
  0.00000000E+00  0.00000000E+00  0.00000000E+00
  0.00000000E+00  0.00000000E+00  0.00000000E+00
