Graphene-B4C3 Hollow 2 with lattice para
   1.00000000000000     
     4.2045533353734497    2.4275000000000002    0.0000000000000000
    -4.2045533353734497    2.4275000000000002    0.0000000000000000
     0.0000000000000000    0.0000000000000000   15.0000000000000000
   B    C 
     4    11
Direct
  0.0043292811501926  0.0028757116629803  0.0995736327351505
  0.3594770442657230  0.0028832759510761  0.1011282444894205
  0.0043391592458768  0.3580245395437367  0.1011300150533855
  0.6491992233279626  0.6477424993186733  0.1011261684111612
  0.3279419970901144  0.3264843621595697  0.1008957843947260
  0.6807374222983168  0.0028864966570556  0.1008819758010803
  0.0043438882410339  0.6792835243826449  0.1008793366498416
  0.1665101386024351  0.3332376133546852  0.3382299381926219
  0.3331980156119526  0.1665533235923650  0.3382316201516324
  0.1665420173157794  0.8332572875604045  0.3382338481418964
  0.3332032800815858  0.6665741716304838  0.3381211248367637
  0.6665322736623212  0.3332414677415996  0.3381211592002457
  0.8332173020150719  0.1665835107169941  0.3382336623834042
  0.6665344372644710  0.8332294115836701  0.3382303694665389
  0.8331885198271706  0.6665768041440725  0.3382291200921576
 
  0.00000000E+00  0.00000000E+00  0.00000000E+00
  0.00000000E+00  0.00000000E+00  0.00000000E+00
  0.00000000E+00  0.00000000E+00  0.00000000E+00
  0.00000000E+00  0.00000000E+00  0.00000000E+00
  0.00000000E+00  0.00000000E+00  0.00000000E+00
  0.00000000E+00  0.00000000E+00  0.00000000E+00
  0.00000000E+00  0.00000000E+00  0.00000000E+00
  0.00000000E+00  0.00000000E+00  0.00000000E+00
  0.00000000E+00  0.00000000E+00  0.00000000E+00
  0.00000000E+00  0.00000000E+00  0.00000000E+00
  0.00000000E+00  0.00000000E+00  0.00000000E+00
  0.00000000E+00  0.00000000E+00  0.00000000E+00
  0.00000000E+00  0.00000000E+00  0.00000000E+00
  0.00000000E+00  0.00000000E+00  0.00000000E+00
  0.00000000E+00  0.00000000E+00  0.00000000E+00
