Graphene-B4C3 Top with lattice parameter
   1.00000000000000     
     4.2042425186539578    2.4291919302708194    0.0496383768018548
    -4.2094856615293521    2.4384054414906138    0.0076151907932638
     0.0662965151030769    0.1638131364634803    7.0105045504238115
   B    C 
     4    11
Direct
  0.0018150918649892 -0.0008525390929934 -0.0032218574306545
  0.3643152078731039  0.0086240987790124 -0.0149580224900048
  0.0018775892059050  0.3579787756640761 -0.0149433304541196
  0.6439623236853413  0.6423135529462456 -0.0145422714983195
  0.3293075909000589  0.3216715443100238 -0.0149596153150146
  0.6834312925389124  0.0103267615027107 -0.0152580701030931
 -0.0054430485701293  0.6740675467481515 -0.0148751973572136
  0.0061781404679790  0.5017672077669728  0.4393467062018471
  0.1658729221977204  0.3343258702307829  0.4423543273795786
  0.0035387913028114  0.0003398242448988  0.4414609308848039
  0.1656340135150719  0.8342456086135553  0.4419083860327713
  0.5027744207308906  0.5016039713322060  0.4387430426758729
  0.6647280785399124  0.3340544528866973  0.4408226264305066
  0.5026769358156847 -0.0016855427194890  0.4394206716144484
  0.6652913165984413  0.8339862001204763  0.4423476734286221
 
  0.00000000E+00  0.00000000E+00  0.00000000E+00
  0.00000000E+00  0.00000000E+00  0.00000000E+00
  0.00000000E+00  0.00000000E+00  0.00000000E+00
  0.00000000E+00  0.00000000E+00  0.00000000E+00
  0.00000000E+00  0.00000000E+00  0.00000000E+00
  0.00000000E+00  0.00000000E+00  0.00000000E+00
  0.00000000E+00  0.00000000E+00  0.00000000E+00
  0.00000000E+00  0.00000000E+00  0.00000000E+00
  0.00000000E+00  0.00000000E+00  0.00000000E+00
  0.00000000E+00  0.00000000E+00  0.00000000E+00
  0.00000000E+00  0.00000000E+00  0.00000000E+00
  0.00000000E+00  0.00000000E+00  0.00000000E+00
  0.00000000E+00  0.00000000E+00  0.00000000E+00
  0.00000000E+00  0.00000000E+00  0.00000000E+00
  0.00000000E+00  0.00000000E+00  0.00000000E+00
