Graphene-Borophene Hollow 2 with lattice
   1.00000000000000     
     4.3110744600389355    2.4889999999999999    0.0000000000000000
    -4.3110744600389355    2.4889999999999999    0.0000000000000000
     0.0000000000000000    0.0000000000000000   15.0000000000000000
   B    C 
     8     8
Direct
  0.6696423860847704 -0.0001090546134293  0.1623650771603670
  0.3302475593018029 -0.0001090546134293  0.1623650771603670
  0.0001090546134293  0.3303566139152321  0.1623650771603670
  0.0001090546134293  0.6697514406981996  0.1623650771603670
  0.3302475593018029  0.3303566139152321  0.1623650771603670
  0.6696423860847704  0.6697514406981996  0.1623650771603670
  0.6666659999999993  0.3333330000000032  0.1587549243969307
  0.3333330000000032  0.6666659999999993  0.1775334025257899
  0.3401578635356966  0.1700789317678554  0.4072851259541735
  0.4986466434351317 -0.0027067131297365  0.4063168944915819
  0.3333326666666636  0.6666663333333389  0.4052627704343402
  0.4986466434351317  0.5013523565648708  0.4063168944915819
  0.8299200682321471  0.1700789317678554  0.4072851259541735
  0.9999996666666675  0.9999993333333350  0.4082523783434622
  0.8299200682321471  0.6598411364643060  0.4072851259541735
  0.0027057131297391  0.5013523565648708  0.4063168944915819
 
  0.00000000E+00  0.00000000E+00  0.00000000E+00
  0.00000000E+00  0.00000000E+00  0.00000000E+00
  0.00000000E+00  0.00000000E+00  0.00000000E+00
  0.00000000E+00  0.00000000E+00  0.00000000E+00
  0.00000000E+00  0.00000000E+00  0.00000000E+00
  0.00000000E+00  0.00000000E+00  0.00000000E+00
  0.00000000E+00  0.00000000E+00  0.00000000E+00
  0.00000000E+00  0.00000000E+00  0.00000000E+00
  0.00000000E+00  0.00000000E+00  0.00000000E+00
  0.00000000E+00  0.00000000E+00  0.00000000E+00
  0.00000000E+00  0.00000000E+00  0.00000000E+00
  0.00000000E+00  0.00000000E+00  0.00000000E+00
  0.00000000E+00  0.00000000E+00  0.00000000E+00
  0.00000000E+00  0.00000000E+00  0.00000000E+00
  0.00000000E+00  0.00000000E+00  0.00000000E+00
  0.00000000E+00  0.00000000E+00  0.00000000E+00
