Graphene-Borophene Hollow 2 with lattice
   1.00000000000000     
     4.3110744600389355    2.4889999999999999    0.0000000000000000
    -4.3110744600389355    2.4889999999999999    0.0000000000000000
     0.0000000000000000    0.0000000000000000   15.0000000000000000
   B    C 
     8     8
Direct
  0.6694376466135408 -0.0000894829902280  0.1671827132702933
  0.3304718703962340 -0.0000894829902280  0.1671827132702933
  0.0000894829902280  0.3305613533864618  0.1671827132702933
  0.0000894829902280  0.6695271296037687  0.1671827132702933
  0.3304718703962340  0.3305613533864618  0.1671827132702933
  0.6694376466135408  0.6695271296037687  0.1671827132702933
  0.6666659999999993  0.3333330000000032  0.1600367518463213
  0.3333330000000032  0.6666659999999993  0.1744681444095064
  0.3333608076959749  0.1666804038479946  0.4033623910898165
  0.5000380546074914  0.0000761092149827  0.4034483308542465
  0.3333326666666636  0.6666663333333389  0.4034362484787233
  0.5000380546074914  0.4999609453925113  0.4034483308542465
  0.8333185961520082  0.1666804038479946  0.4033623910898165
  0.9999996666666675  0.9999993333333350  0.4033304098114906
  0.8333185961520082  0.6666381923040277  0.4033623910898165
 -0.0000771092149801  0.4999609453925113  0.4034483308542465
 
  0.00000000E+00  0.00000000E+00  0.00000000E+00
  0.00000000E+00  0.00000000E+00  0.00000000E+00
  0.00000000E+00  0.00000000E+00  0.00000000E+00
  0.00000000E+00  0.00000000E+00  0.00000000E+00
  0.00000000E+00  0.00000000E+00  0.00000000E+00
  0.00000000E+00  0.00000000E+00  0.00000000E+00
  0.00000000E+00  0.00000000E+00  0.00000000E+00
  0.00000000E+00  0.00000000E+00  0.00000000E+00
  0.00000000E+00  0.00000000E+00  0.00000000E+00
  0.00000000E+00  0.00000000E+00  0.00000000E+00
  0.00000000E+00  0.00000000E+00  0.00000000E+00
  0.00000000E+00  0.00000000E+00  0.00000000E+00
  0.00000000E+00  0.00000000E+00  0.00000000E+00
  0.00000000E+00  0.00000000E+00  0.00000000E+00
  0.00000000E+00  0.00000000E+00  0.00000000E+00
  0.00000000E+00  0.00000000E+00  0.00000000E+00
