Graphene with lattice parameter 2.467   
   1.00000000000000     
     2.1364844999999999    1.2335000000000000    0.0000000000000000
    -2.1364844999999999    1.2335000000000000    0.0000000000000000
     0.0000000000000000    0.0000000000000000   15.0000000000000000
    C 
    2
Direct
  0.3333330000000032  0.6666659999999993  0.1000000000000014
  0.6666659999999993  0.3333330000000032  0.1000000000000014
 
  0.00000000E+00  0.00000000E+00  0.00000000E+00
  0.00000000E+00  0.00000000E+00  0.00000000E+00
