Graphene-BC3 Bridge with lattice paramet
   1.00000000000000     
     4.3665000858811389    2.5209999999999995    0.0000000000000000
    -4.3665000858811389    2.5209999999999995    0.0000000000000000
     0.0000000000000000    0.0000000000000000   15.0000000000000000
   B    C 
     2    14
Direct
  0.3329032485414893  0.6749209314804474  0.0995461073777184
  0.6662221866907233  0.3416063598313670  0.0996729413318787
  0.1591237320734539  0.3274414851195414  0.0995291543794385
  0.3187437652854059  0.1676411413654260  0.0994887286364633
  0.1591488382881318  0.8486134703754730  0.0994850209967281
  0.8399711010720307  0.1679158847049718  0.0995265576847205
  0.6804225601894597  0.8486735125098688  0.0995161163005243
  0.8402619724197868  0.6891327388793790  0.0994799301046901
  0.2552860932468017  0.2441096493191577  0.3269412458640293
  0.4219414640990389  0.0775109224055983  0.3268164802912466
  0.2552778518674302  0.7443691642425638  0.3266618401763945
  0.4221457193454832  0.5775258486013617  0.3266952529118414
  0.7553130501270434  0.2443268211767440  0.3267398376139280
  0.9222073040929832  0.0774565365178592  0.3268183504837622
  0.7555372720051382  0.7443610177233076  0.3269416521770475
  0.9221525073223039  0.5777198490802571  0.3268074503362452
 
  0.00000000E+00  0.00000000E+00  0.00000000E+00
  0.00000000E+00  0.00000000E+00  0.00000000E+00
  0.00000000E+00  0.00000000E+00  0.00000000E+00
  0.00000000E+00  0.00000000E+00  0.00000000E+00
  0.00000000E+00  0.00000000E+00  0.00000000E+00
  0.00000000E+00  0.00000000E+00  0.00000000E+00
  0.00000000E+00  0.00000000E+00  0.00000000E+00
  0.00000000E+00  0.00000000E+00  0.00000000E+00
  0.00000000E+00  0.00000000E+00  0.00000000E+00
  0.00000000E+00  0.00000000E+00  0.00000000E+00
  0.00000000E+00  0.00000000E+00  0.00000000E+00
  0.00000000E+00  0.00000000E+00  0.00000000E+00
  0.00000000E+00  0.00000000E+00  0.00000000E+00
  0.00000000E+00  0.00000000E+00  0.00000000E+00
  0.00000000E+00  0.00000000E+00  0.00000000E+00
  0.00000000E+00  0.00000000E+00  0.00000000E+00
