Graphene-BC3 Bridge with lattice paramet
   1.00000000000000     
     4.3665000858811389    2.5209999999999995    0.0000000000000000
    -4.3665000858811389    2.5209999999999995    0.0000000000000000
     0.0000000000000000    0.0000000000000000   15.0000000000000000
   B    C 
     2    14
Direct
  0.3362878026522242  0.6713401498419375  0.0998815693554895
  0.6696221064331513  0.3380127180946000  0.0996278822172232
  0.1625343397576899  0.3239999285962997  0.0990566914281651
  0.3221074326295991  0.1643314897239250  0.1001233643292964
  0.1624938991810865  0.8451053195080738  0.1007428101114116
  0.8432781188579994  0.1643854625126123  0.0984592890086494
  0.6836340450240423  0.8451304876707514  0.0991048051774495
  0.8432698247342629  0.6855219465758383  0.1001683933898275
  0.2520649722144503  0.2476499439332048  0.3268267140858496
  0.4186430237153937  0.0811004733464561  0.3266993668792935
  0.2520479966343511  0.7478233201507687  0.3265324251408673
  0.4187808306989135  0.5810835645518709  0.3265569783328345
  0.7521025781154338  0.2477629604662336  0.3265779852643183
  0.9188102516697902  0.0810519632512930  0.3267939980293892
  0.7522187543952722  0.7478052241955455  0.3268249454288892
  0.9187626899530440  0.5812203809139129  0.3266894484877025
 
  0.00000000E+00  0.00000000E+00  0.00000000E+00
  0.00000000E+00  0.00000000E+00  0.00000000E+00
  0.00000000E+00  0.00000000E+00  0.00000000E+00
  0.00000000E+00  0.00000000E+00  0.00000000E+00
  0.00000000E+00  0.00000000E+00  0.00000000E+00
  0.00000000E+00  0.00000000E+00  0.00000000E+00
  0.00000000E+00  0.00000000E+00  0.00000000E+00
  0.00000000E+00  0.00000000E+00  0.00000000E+00
  0.00000000E+00  0.00000000E+00  0.00000000E+00
  0.00000000E+00  0.00000000E+00  0.00000000E+00
  0.00000000E+00  0.00000000E+00  0.00000000E+00
  0.00000000E+00  0.00000000E+00  0.00000000E+00
  0.00000000E+00  0.00000000E+00  0.00000000E+00
  0.00000000E+00  0.00000000E+00  0.00000000E+00
  0.00000000E+00  0.00000000E+00  0.00000000E+00
  0.00000000E+00  0.00000000E+00  0.00000000E+00
