Graphene-BC3 Bridge with lattice paramet
   1.00000000000000     
     4.3690981620924925    2.5225000000000000    0.0000000000000000
    -4.3690981620924925    2.5225000000000000    0.0000000000000000
     0.0000000000000000    0.0000000000000000   15.0000000000000000
   B    C 
     2    14
Direct
  0.3382904433369207  0.6692072267825024  0.1002333928746343
  0.6716468682536090  0.3358563290220696  0.1001403644986235
  0.1645761021523189  0.3218081202321173  0.0999088719699230
  0.3241387959132450  0.1621838834600960  0.0999342156113994
  0.1645322366194892  0.8429743070713841  0.0999586028664861
  0.8453352420479665  0.1621660178067007  0.0998835958717377
  0.6856941758154798  0.8429310269974833  0.0999101370846461
  0.8453163430565744  0.6833657036616029  0.0999355822811946
  0.2500116402071374  0.2498235940673446  0.3264500513702905
  0.4166139397827696  0.0832580068778198  0.3263848175197302
  0.2499969185251168  0.7500015216266056  0.3262460457391766
  0.4167529617907429  0.5832417622976073  0.3262152525165281
  0.7500612440206244  0.2499312795998414  0.3262167043032820
  0.9167837082146675  0.0832098175409281  0.3264214308972021
  0.7501713508622623  0.7499852365214645  0.3264501066624358
  0.9167366960677812  0.5833814997677564  0.3263774945993669
 
  0.00000000E+00  0.00000000E+00  0.00000000E+00
  0.00000000E+00  0.00000000E+00  0.00000000E+00
  0.00000000E+00  0.00000000E+00  0.00000000E+00
  0.00000000E+00  0.00000000E+00  0.00000000E+00
  0.00000000E+00  0.00000000E+00  0.00000000E+00
  0.00000000E+00  0.00000000E+00  0.00000000E+00
  0.00000000E+00  0.00000000E+00  0.00000000E+00
  0.00000000E+00  0.00000000E+00  0.00000000E+00
  0.00000000E+00  0.00000000E+00  0.00000000E+00
  0.00000000E+00  0.00000000E+00  0.00000000E+00
  0.00000000E+00  0.00000000E+00  0.00000000E+00
  0.00000000E+00  0.00000000E+00  0.00000000E+00
  0.00000000E+00  0.00000000E+00  0.00000000E+00
  0.00000000E+00  0.00000000E+00  0.00000000E+00
  0.00000000E+00  0.00000000E+00  0.00000000E+00
  0.00000000E+00  0.00000000E+00  0.00000000E+00
