Graphene-Borophene Hollow 1 with lattice
   1.00000000000000     
     4.2911558757518931    2.4775000000000000    0.0000000000000000
    -4.2911558757518931    2.4775000000000000    0.0000000000000000
     0.0000000000000000    0.0000000000000000   15.0000000000000000
   B    C 
     8     8
Direct
  0.6711723560414723 -0.0026085003613464  0.1672058317378610
  0.3333678806464175 -0.0023638738720808  0.1675240077976249
  0.0026085003613464  0.3288266439585296  0.1672058317378610
  0.0023638738720808  0.6666311193535853  0.1675240077976249
  0.3334167556076609  0.3287917870822480  0.1678692202706974
  0.6712072129177549  0.6665822443923410  0.1678692202706974
  0.6690229662740841  0.3309760337259189  0.1551092652180908
  0.3355408262573546  0.6644581737426479  0.1817698728543989
  0.2754402360769254  0.2245734939106145  0.4018503911160032
  0.4421591869785784  0.0579427083560299  0.4018947806172491
  0.2754260564496198  0.7245729435503827  0.4017993385111971
  0.4421459475330352  0.5578530524669673  0.4019561630883959
  0.7753977574847515  0.2246012425152518  0.4017995658796345
  0.9421305346544907  0.0578684653455120  0.4016773313694205
  0.7754255060893880  0.7245587639230772  0.4018503911160032
  0.9420562916439732  0.5578398130214237  0.4018947806172491
 
  0.00000000E+00  0.00000000E+00  0.00000000E+00
  0.00000000E+00  0.00000000E+00  0.00000000E+00
  0.00000000E+00  0.00000000E+00  0.00000000E+00
  0.00000000E+00  0.00000000E+00  0.00000000E+00
  0.00000000E+00  0.00000000E+00  0.00000000E+00
  0.00000000E+00  0.00000000E+00  0.00000000E+00
  0.00000000E+00  0.00000000E+00  0.00000000E+00
  0.00000000E+00  0.00000000E+00  0.00000000E+00
  0.00000000E+00  0.00000000E+00  0.00000000E+00
  0.00000000E+00  0.00000000E+00  0.00000000E+00
  0.00000000E+00  0.00000000E+00  0.00000000E+00
  0.00000000E+00  0.00000000E+00  0.00000000E+00
  0.00000000E+00  0.00000000E+00  0.00000000E+00
  0.00000000E+00  0.00000000E+00  0.00000000E+00
  0.00000000E+00  0.00000000E+00  0.00000000E+00
  0.00000000E+00  0.00000000E+00  0.00000000E+00
