Graphene-Borophene Bridge with lattice p
   1.00000000000000     
     4.2911558757518931    2.4775000000000000    0.0000000000000000
    -4.2911558757518931    2.4775000000000000    0.0000000000000000
     0.0000000000000000    0.0000000000000000   15.0000000000000000
   B    C 
     8     8
Direct
  0.6711434067915780 -0.0023254490819633  0.1677978145619406
  0.3335679774254079 -0.0022219593459419  0.1678014430605116
  0.0023254490819633  0.3288555932084240  0.1677978145619406
  0.0022219593459419  0.6664310225745947  0.1678014430605116
  0.3333249294160460  0.3288428902380092  0.1663454092946839
  0.6711561097619931  0.6666740705839569  0.1663454092946839
  0.6686326308789866  0.3313663691210151  0.1538974996950737
  0.3353220561398274  0.6646769438601745  0.1809618601916534
  0.2478151218915808  0.2522227823209602  0.4017483154532014
  0.4144769846158687  0.0855794232565653  0.4017491396079254
  0.2477555657401580  0.7522434342598449  0.4017478517960625
  0.4144694647222062  0.5855295352777957  0.4017641716422961
  0.7477914136438365  0.2522075863561659  0.4016504230099970
  0.9144608027888284  0.0855381972111745  0.4016272830417627
  0.7477762176790422  0.7521838781084220  0.4017483154532014
  0.9144195767434377  0.5855220153841341  0.4017491396079254
 
  0.00000000E+00  0.00000000E+00  0.00000000E+00
  0.00000000E+00  0.00000000E+00  0.00000000E+00
  0.00000000E+00  0.00000000E+00  0.00000000E+00
  0.00000000E+00  0.00000000E+00  0.00000000E+00
  0.00000000E+00  0.00000000E+00  0.00000000E+00
  0.00000000E+00  0.00000000E+00  0.00000000E+00
  0.00000000E+00  0.00000000E+00  0.00000000E+00
  0.00000000E+00  0.00000000E+00  0.00000000E+00
  0.00000000E+00  0.00000000E+00  0.00000000E+00
  0.00000000E+00  0.00000000E+00  0.00000000E+00
  0.00000000E+00  0.00000000E+00  0.00000000E+00
  0.00000000E+00  0.00000000E+00  0.00000000E+00
  0.00000000E+00  0.00000000E+00  0.00000000E+00
  0.00000000E+00  0.00000000E+00  0.00000000E+00
  0.00000000E+00  0.00000000E+00  0.00000000E+00
  0.00000000E+00  0.00000000E+00  0.00000000E+00
