Graphene-B4C3 Hollow 2 with lattice para
   1.00000000000000     
     4.1872328272977608    2.4175000000000000    0.0000000000000000
    -4.1872328272977608    2.4175000000000000    0.0000000000000000
     0.0000000000000000    0.0000000000000000   15.0000000000000000
   B    C 
     4    11
Direct
  0.0043731489493289  0.0029062346104249  0.0995098281723579
  0.3595225592585988  0.0029096794196029  0.1012425580387627
  0.0043812267469498  0.3580536373634126  0.1012446650024787
  0.6492263546511847  0.6477554944354901  0.1012487121138862
  0.3281441562278152  0.3266742191195861  0.1009784155435793
  0.6806094699981224  0.0029080083217402  0.1009777491936608
  0.0043802366181575  0.6791386962236852  0.1009781127034117
  0.1664777946034243  0.3332190909081024  0.3381592157617216
  0.3331653822514845  0.1665322625697876  0.3381609841231011
  0.1665172721974345  0.8332377409723154  0.3381633551288311
  0.3331668844390619  0.6665545458954840  0.3380513320845109
  0.6665005875352727  0.3332195436432765  0.3380513364010896
  0.8331833817456245  0.1665703457101306  0.3381627205859072
  0.6664994779219263  0.8332010505098059  0.3381590736770110
  0.8331460668556208  0.6665534502971671  0.3381579414697169
 
  0.00000000E+00  0.00000000E+00  0.00000000E+00
  0.00000000E+00  0.00000000E+00  0.00000000E+00
  0.00000000E+00  0.00000000E+00  0.00000000E+00
  0.00000000E+00  0.00000000E+00  0.00000000E+00
  0.00000000E+00  0.00000000E+00  0.00000000E+00
  0.00000000E+00  0.00000000E+00  0.00000000E+00
  0.00000000E+00  0.00000000E+00  0.00000000E+00
  0.00000000E+00  0.00000000E+00  0.00000000E+00
  0.00000000E+00  0.00000000E+00  0.00000000E+00
  0.00000000E+00  0.00000000E+00  0.00000000E+00
  0.00000000E+00  0.00000000E+00  0.00000000E+00
  0.00000000E+00  0.00000000E+00  0.00000000E+00
  0.00000000E+00  0.00000000E+00  0.00000000E+00
  0.00000000E+00  0.00000000E+00  0.00000000E+00
  0.00000000E+00  0.00000000E+00  0.00000000E+00
