Graphene with lattice parameter 2.490   
   1.00000000000000     
     4.3128070000000003    2.4900000000000002    0.0000000000000000
    -4.3128070000000003    2.4900000000000002    0.0000000000000000
     0.0000000000000000    0.0000000000000000   15.0000000000000000
   C 
     8
Direct
  0.1666659999999993  0.3333330000000032  0.1000000000000014
  0.3333330000000032  0.1666659999999993  0.1000000000000014
  0.1666659999999993  0.8333330000000032  0.1000000000000014
  0.3333330000000032  0.6666659999999993  0.1000000000000014
  0.6666659999999993  0.3333330000000032  0.1000000000000014
  0.8333330000000032  0.1666659999999993  0.1000000000000014
  0.6666659999999993  0.8333330000000032  0.1000000000000014
  0.8333330000000032  0.6666659999999993  0.1000000000000014
 
  0.00000000E+00  0.00000000E+00  0.00000000E+00
  0.00000000E+00  0.00000000E+00  0.00000000E+00
  0.00000000E+00  0.00000000E+00  0.00000000E+00
  0.00000000E+00  0.00000000E+00  0.00000000E+00
  0.00000000E+00  0.00000000E+00  0.00000000E+00
  0.00000000E+00  0.00000000E+00  0.00000000E+00
  0.00000000E+00  0.00000000E+00  0.00000000E+00
  0.00000000E+00  0.00000000E+00  0.00000000E+00
