Graphene-B4C3 Hollow 2 with lattice para
   1.00000000000000     
     4.1612520651842271    2.4024999999999999    0.0000000000000000
    -4.1612520651842271    2.4024999999999999    0.0000000000000000
     0.0000000000000000    0.0000000000000000   15.0000000000000000
   B    C 
     4    11
Direct
  0.0045036856456649  0.0029861887912357  0.0976440987865841
  0.3595797429079596  0.0029934235393342  0.1019375829132312
  0.0045157701569779  0.3580649097856767  0.1019397085716659
  0.6494447782661958  0.6479251806488210  0.1019445591374416
  0.3285244542512393  0.3270045583204644  0.1013526656872865
  0.6805009443763905  0.0029921827459917  0.1013617944631485
  0.0045122417132829  0.6789835521978511  0.1013638128003216
  0.1663634391951223  0.3331408879951213  0.3379888484741193
  0.3330439787033574  0.1664594111911429  0.3379906946979276
  0.1663980163907577  0.8331602185135458  0.3379938074678536
  0.3330462434828935  0.6664793405464144  0.3378789975287532
  0.6663827285587687  0.3331421947649402  0.3378791274736418
  0.8330625829350250  0.1664933649084459  0.3379930275222033
  0.6663839757521538  0.8331284357854052  0.3379893335187600
  0.8330314176642176  0.6664801502656205  0.3379879409570887
 
  0.00000000E+00  0.00000000E+00  0.00000000E+00
  0.00000000E+00  0.00000000E+00  0.00000000E+00
  0.00000000E+00  0.00000000E+00  0.00000000E+00
  0.00000000E+00  0.00000000E+00  0.00000000E+00
  0.00000000E+00  0.00000000E+00  0.00000000E+00
  0.00000000E+00  0.00000000E+00  0.00000000E+00
  0.00000000E+00  0.00000000E+00  0.00000000E+00
  0.00000000E+00  0.00000000E+00  0.00000000E+00
  0.00000000E+00  0.00000000E+00  0.00000000E+00
  0.00000000E+00  0.00000000E+00  0.00000000E+00
  0.00000000E+00  0.00000000E+00  0.00000000E+00
  0.00000000E+00  0.00000000E+00  0.00000000E+00
  0.00000000E+00  0.00000000E+00  0.00000000E+00
  0.00000000E+00  0.00000000E+00  0.00000000E+00
  0.00000000E+00  0.00000000E+00  0.00000000E+00
