Graphene-BC3 Bridge with lattice paramet
   1.00000000000000     
     4.3673661112849240    2.5215000000000001    0.0000000000000000
    -4.3673661112849240    2.5215000000000001    0.0000000000000000
     0.0000000000000000    0.0000000000000000   15.0000000000000000
   B    C 
     2    14
Direct
  0.3222110072593131  0.6863046452905129  0.1008525388070037
  0.6557308938133004  0.3528120207499812  0.1005311425502344
  0.1486562995917499  0.3388603524970434  0.1004212652788311
  0.3082217423723874  0.1792264260938781  0.1004415555445358
  0.1485130038203677  0.8599983641379811  0.1004571679312232
  0.8293935783184579  0.1791154567756321  0.1005478259712993
  0.6696518004451156  0.8598151587748246  0.1004148743605063
  0.8293666712983345  0.7003609572657405  0.1004322716210599
  0.2659874705495719  0.2327934737428521  0.3259261899161676
  0.4325516366005043  0.0662677559919501  0.3258665269801093
  0.2660066997414784  0.7329646808794005  0.3255772700540334
  0.4327567057454179  0.5662159760239603  0.3257779623893085
  0.7660070868360709  0.2329544168879021  0.3258046454074426
  0.9327219157428113  0.0662442807615235  0.3258311804851373
  0.7661882526894037  0.7329887764908718  0.3259270944750804
  0.9326939018424185  0.5664025909692689  0.3258571548946841
 
  0.00000000E+00  0.00000000E+00  0.00000000E+00
  0.00000000E+00  0.00000000E+00  0.00000000E+00
  0.00000000E+00  0.00000000E+00  0.00000000E+00
  0.00000000E+00  0.00000000E+00  0.00000000E+00
  0.00000000E+00  0.00000000E+00  0.00000000E+00
  0.00000000E+00  0.00000000E+00  0.00000000E+00
  0.00000000E+00  0.00000000E+00  0.00000000E+00
  0.00000000E+00  0.00000000E+00  0.00000000E+00
  0.00000000E+00  0.00000000E+00  0.00000000E+00
  0.00000000E+00  0.00000000E+00  0.00000000E+00
  0.00000000E+00  0.00000000E+00  0.00000000E+00
  0.00000000E+00  0.00000000E+00  0.00000000E+00
  0.00000000E+00  0.00000000E+00  0.00000000E+00
  0.00000000E+00  0.00000000E+00  0.00000000E+00
  0.00000000E+00  0.00000000E+00  0.00000000E+00
  0.00000000E+00  0.00000000E+00  0.00000000E+00
