B4C3 with lattice parameter 4.690       
   1.00000000000000     
     4.0616589999999997    2.3450000000000002    0.0000000000000000
    -4.0616589999999997    2.3450000000000002    0.0000000000000000
     0.0000000000000000    0.0000000000000000   15.0000000000000000
   B    C 
     4     3
Direct
  0.0041839312309114  0.0027704019603219  0.1202651684527743
  0.3569552191163009  0.0027819903460667  0.0975034416943912
  0.0041869706702273  0.3555420494043012  0.0975029931107734
  0.6514162295268551  0.6500117132297020  0.0975054549201733
  0.3281007160904637  0.3266940431932485  0.1002827262393205
  0.6802682742395443  0.0027811127310500  0.1002921655125141
  0.0041866591256944  0.6788566891353108  0.1002940500700644
 
  0.00000000E+00  0.00000000E+00  0.00000000E+00
  0.00000000E+00  0.00000000E+00  0.00000000E+00
  0.00000000E+00  0.00000000E+00  0.00000000E+00
  0.00000000E+00  0.00000000E+00  0.00000000E+00
  0.00000000E+00  0.00000000E+00  0.00000000E+00
  0.00000000E+00  0.00000000E+00  0.00000000E+00
  0.00000000E+00  0.00000000E+00  0.00000000E+00
