Graphene-BC3 Bridge with lattice paramet
   1.00000000000000     
     4.3639020096697863    2.5194999999999999    0.0000000000000000
    -4.3639020096697863    2.5194999999999999    0.0000000000000000
     0.0000000000000000    0.0000000000000000   15.0000000000000000
   B    C 
     2    14
Direct
  0.3290077240440271  0.6791016209431434  0.1009395077635694
  0.6622469775177141  0.3458328002821247  0.1007456401017995
  0.1553279601392137  0.3317794057481780  0.1001644837216775
  0.3147806023919052  0.1720269293314653  0.1010810962117192
  0.1552224442541827  0.8528418193146118  0.1015687568633666
  0.8359067928065504  0.1721316191623097  0.0997266669077594
  0.6763215380879420  0.8527454518310130  0.1002285398266639
  0.8360460634170105  0.6933106875986664  0.1011452849671253
  0.2593801493136652  0.2399740883288958  0.3256748967995315
  0.4260022669302524  0.0733893294318468  0.3256336937545359
  0.2593468171759041  0.7400745246730033  0.3255780937032727
  0.4260979124004654  0.5733175145897991  0.3255841822851692
  0.7594088481953231  0.2400094931682273  0.3255832269557693
  0.9260872334451646  0.0733309809390904  0.3257075591600285
  0.7594447154301904  0.7400405305656906  0.3256735534843117
  0.9260306211171958  0.5734185374252575  0.3256314841603574
 
  0.00000000E+00  0.00000000E+00  0.00000000E+00
  0.00000000E+00  0.00000000E+00  0.00000000E+00
  0.00000000E+00  0.00000000E+00  0.00000000E+00
  0.00000000E+00  0.00000000E+00  0.00000000E+00
  0.00000000E+00  0.00000000E+00  0.00000000E+00
  0.00000000E+00  0.00000000E+00  0.00000000E+00
  0.00000000E+00  0.00000000E+00  0.00000000E+00
  0.00000000E+00  0.00000000E+00  0.00000000E+00
  0.00000000E+00  0.00000000E+00  0.00000000E+00
  0.00000000E+00  0.00000000E+00  0.00000000E+00
  0.00000000E+00  0.00000000E+00  0.00000000E+00
  0.00000000E+00  0.00000000E+00  0.00000000E+00
  0.00000000E+00  0.00000000E+00  0.00000000E+00
  0.00000000E+00  0.00000000E+00  0.00000000E+00
  0.00000000E+00  0.00000000E+00  0.00000000E+00
  0.00000000E+00  0.00000000E+00  0.00000000E+00
