Graphene-BC3 Bridge with lattice paramet
   1.00000000000000     
     4.3639020096697863    2.5194999999999999    0.0000000000000000
    -4.3639020096697863    2.5194999999999999    0.0000000000000000
     0.0000000000000000    0.0000000000000000   15.0000000000000000
   B    C 
     2    14
Direct
  0.3292728583128431  0.6787996209742118  0.1009786871753415
  0.6625254150324588  0.3455211268633973  0.1007974497647628
  0.1555149932299970  0.3315087966455514  0.1000908603278722
  0.3150875190376779  0.1717828264634614  0.1011531484395731
  0.1554602613903653  0.8525896680182610  0.1017192520579149
  0.8362398516543645  0.1718275192251042  0.0995804006228518
  0.6765515689208570  0.8525539979390140  0.1001669249258257
  0.8362744058985664  0.6929836476561816  0.1012313153225726
  0.2591182388725004  0.2402232100601050  0.3256573072646249
  0.4257218676540695  0.0736614370350212  0.3256381592085971
  0.2590878830162411  0.7403525694923668  0.3254914572966167
  0.4258332714156528  0.5735994129318568  0.3255910407413817
  0.7591464307802229  0.2402892279511014  0.3255320568140981
  0.9258363881049820  0.0735967844024450  0.3257498335906275
  0.7592139808942450  0.7403212187997599  0.3256549978045538
  0.9257737324516628  0.5737142688754845  0.3256337753094424
 
  0.00000000E+00  0.00000000E+00  0.00000000E+00
  0.00000000E+00  0.00000000E+00  0.00000000E+00
  0.00000000E+00  0.00000000E+00  0.00000000E+00
  0.00000000E+00  0.00000000E+00  0.00000000E+00
  0.00000000E+00  0.00000000E+00  0.00000000E+00
  0.00000000E+00  0.00000000E+00  0.00000000E+00
  0.00000000E+00  0.00000000E+00  0.00000000E+00
  0.00000000E+00  0.00000000E+00  0.00000000E+00
  0.00000000E+00  0.00000000E+00  0.00000000E+00
  0.00000000E+00  0.00000000E+00  0.00000000E+00
  0.00000000E+00  0.00000000E+00  0.00000000E+00
  0.00000000E+00  0.00000000E+00  0.00000000E+00
  0.00000000E+00  0.00000000E+00  0.00000000E+00
  0.00000000E+00  0.00000000E+00  0.00000000E+00
  0.00000000E+00  0.00000000E+00  0.00000000E+00
  0.00000000E+00  0.00000000E+00  0.00000000E+00
