Graphene-B4C3 Hollow 2 with lattice para
   1.00000000000000     
     4.2106155131999410    2.4310000000000000    0.0000000000000000
    -4.2106155131999410    2.4310000000000000    0.0000000000000000
     0.0000000000000000    0.0000000000000000   15.0000000000000000
   B    C 
     4    11
Direct
  0.0044398663058743  0.0029533459923753  0.0996031212509493
  0.3595860255780061  0.0029575423954942  0.1007979583939190
  0.0044479845872000  0.3580978607114621  0.1008001650269749
  0.6493016951285459  0.6478112189998637  0.1008046289682145
  0.3279671424190945  0.3264753176532089  0.1006008858419776
  0.6809298650184314  0.0029616311636492  0.1005979676740841
  0.0044525070743087  0.6794397494763791  0.1005977447541278
  0.1664135263750930  0.3331733378843170  0.3384558511030932
  0.3331025474776132  0.1664853978365219  0.3384575978418850
  0.1664569210971505  0.8331964819679747  0.3384596851580233
  0.3331060385101146  0.6665109045017005  0.3383509684134162
  0.6664398289543453  0.3331756679285489  0.3383510102824908
  0.8331250405795250  0.1665271871383161  0.3384589514553966
  0.6664404042213722  0.8331568114508463  0.3384553365674703
  0.8330846066733325  0.6665115448993525  0.3384541272680048
 
  0.00000000E+00  0.00000000E+00  0.00000000E+00
  0.00000000E+00  0.00000000E+00  0.00000000E+00
  0.00000000E+00  0.00000000E+00  0.00000000E+00
  0.00000000E+00  0.00000000E+00  0.00000000E+00
  0.00000000E+00  0.00000000E+00  0.00000000E+00
  0.00000000E+00  0.00000000E+00  0.00000000E+00
  0.00000000E+00  0.00000000E+00  0.00000000E+00
  0.00000000E+00  0.00000000E+00  0.00000000E+00
  0.00000000E+00  0.00000000E+00  0.00000000E+00
  0.00000000E+00  0.00000000E+00  0.00000000E+00
  0.00000000E+00  0.00000000E+00  0.00000000E+00
  0.00000000E+00  0.00000000E+00  0.00000000E+00
  0.00000000E+00  0.00000000E+00  0.00000000E+00
  0.00000000E+00  0.00000000E+00  0.00000000E+00
  0.00000000E+00  0.00000000E+00  0.00000000E+00
