Graphene-BC3 Hollow with lattice paramet
   1.00000000000000     
     4.3716962383038442    2.5239999999999991    0.0000000000000000
    -4.3716962383038442    2.5239999999999991    0.0000000000000000
     0.0000000000000000    0.0000000000000000   15.0000000000000000
   B    C 
     2    14
Direct
  0.3383269074423702  0.6691629504367653  0.1002882214232959
  0.6716623235763738  0.3358308346712068  0.0999777473200762
  0.1645899212272307  0.3216899511422958  0.0999829928704580
  0.3241126998302948  0.1620557830887869  0.0999889798348327
  0.1645897536740084  0.8428997753082625  0.0999829949150486
  0.8454311276712069  0.1620545214692195  0.0999865823367329
  0.6857933463190657  0.8428962358937775  0.0999805574270335
  0.8454316357794808  0.6833760259345755  0.0999865919622526
  0.3333574254618161  0.1666785523072691  0.3255615900481308
  0.5000460981286881  1.0000868715166973  0.3255391418539251
  0.3333382225042129  0.6666689507195210  0.3252594040714610
  0.5000461004200982  0.4999589376139703  0.3255391422808083
  0.8333333556390247  0.1666799578633656  0.3255569496425759
  1.0000085786922110  1.0000041460408182  0.3255390079703361
  0.8333333544635924  0.6666530748001237  0.3255569502856007
  0.9999244825036596  0.4999620978600391  0.3255398124241032
 
  0.00000000E+00  0.00000000E+00  0.00000000E+00
  0.00000000E+00  0.00000000E+00  0.00000000E+00
  0.00000000E+00  0.00000000E+00  0.00000000E+00
  0.00000000E+00  0.00000000E+00  0.00000000E+00
  0.00000000E+00  0.00000000E+00  0.00000000E+00
  0.00000000E+00  0.00000000E+00  0.00000000E+00
  0.00000000E+00  0.00000000E+00  0.00000000E+00
  0.00000000E+00  0.00000000E+00  0.00000000E+00
  0.00000000E+00  0.00000000E+00  0.00000000E+00
  0.00000000E+00  0.00000000E+00  0.00000000E+00
  0.00000000E+00  0.00000000E+00  0.00000000E+00
  0.00000000E+00  0.00000000E+00  0.00000000E+00
  0.00000000E+00  0.00000000E+00  0.00000000E+00
  0.00000000E+00  0.00000000E+00  0.00000000E+00
  0.00000000E+00  0.00000000E+00  0.00000000E+00
  0.00000000E+00  0.00000000E+00  0.00000000E+00
