Graphene-B4C3 Hollow 1 with lattice para
   1.00000000000000     
     4.2106155131999410    2.4310000000000000    0.0000000000000000
    -4.2106155131999410    2.4310000000000000    0.0000000000000000
     0.0000000000000000    0.0000000000000000   15.0000000000000000
   B    C 
     4    11
Direct
  0.0306896851290833 -0.0208892399214901  0.1032111715613624
  0.3856256297925715 -0.0209898956984224  0.0998742369483605
  0.0301891068926477  0.3337320384411905  0.1000090773976026
  0.6755415722789250  0.6239712007115501  0.0999490769332191
  0.3539823548235325  0.3021939531528208  0.1000225550936733
  0.7074348795853209 -0.0205148968224007  0.1004507310619030
  0.0313593469169429  0.6561292431225282  0.1000735308590295
  0.0880519840227632  0.4096039864325629  0.3385414058093200
  0.2547655727140816  0.2431760062848892  0.3384868909198065
  0.0879902104282455  0.9095705666231880  0.3384130165138308
  0.2547836875584035  0.7430768667918133  0.3385394427780172
  0.5877547044815381  0.4094942356439272  0.3385296770822791
  0.7545618492728813  0.2430764478088558  0.3385686588170339
  0.5876864708077789  0.9093170138274118  0.3386433126435535
  0.7544325008508339  0.7429309180460435  0.3384665489143291
 
  0.00000000E+00  0.00000000E+00  0.00000000E+00
  0.00000000E+00  0.00000000E+00  0.00000000E+00
  0.00000000E+00  0.00000000E+00  0.00000000E+00
  0.00000000E+00  0.00000000E+00  0.00000000E+00
  0.00000000E+00  0.00000000E+00  0.00000000E+00
  0.00000000E+00  0.00000000E+00  0.00000000E+00
  0.00000000E+00  0.00000000E+00  0.00000000E+00
  0.00000000E+00  0.00000000E+00  0.00000000E+00
  0.00000000E+00  0.00000000E+00  0.00000000E+00
  0.00000000E+00  0.00000000E+00  0.00000000E+00
  0.00000000E+00  0.00000000E+00  0.00000000E+00
  0.00000000E+00  0.00000000E+00  0.00000000E+00
  0.00000000E+00  0.00000000E+00  0.00000000E+00
  0.00000000E+00  0.00000000E+00  0.00000000E+00
  0.00000000E+00  0.00000000E+00  0.00000000E+00
