Graphene-B4C3 Top with lattice parameter
   1.00000000000000     
     4.2080174369885874    2.4295000000000000    0.0000000000000000
    -4.2080174369885874    2.4295000000000000    0.0000000000000000
     0.0000000000000000    0.0000000000000000   15.0000000000000000
   B    C 
     4    11
Direct
  0.0040303046751294  0.0026792275761298  0.1009151872397360
  0.3592153586571381  0.0029758967582241  0.1003970922419486
  0.0037324827498442  0.3575669967730206  0.1003975064587534
  0.6491467623914069  0.6475060891951733  0.1003951044627996
  0.3276388924288623  0.3259970356356365  0.1003822568076568
  0.6807128915023332  0.0029760021726867  0.1003853663210642
  0.0037393118872349  0.6790710890547014  0.1003831229892215
  0.0001523210740299  0.5000724138009448  0.3350345672815512
  0.1668031334657857  0.3334645112513513  0.3350705503870129
  0.0001348520066837  0.0000819595582586  0.3349996032214539
  0.1668481862103983  0.8334150013396451  0.3350742673150672
  0.5001464169010258  0.5001125600400445  0.3350371102678457
  0.6668016482140557  0.3334169714045585  0.3349374697513363
  0.5001050333198171  0.0000642027316376  0.3350328917171327
  0.6667530711829470  0.8333673760413136  0.3350705702041028
 
  0.00000000E+00  0.00000000E+00  0.00000000E+00
  0.00000000E+00  0.00000000E+00  0.00000000E+00
  0.00000000E+00  0.00000000E+00  0.00000000E+00
  0.00000000E+00  0.00000000E+00  0.00000000E+00
  0.00000000E+00  0.00000000E+00  0.00000000E+00
  0.00000000E+00  0.00000000E+00  0.00000000E+00
  0.00000000E+00  0.00000000E+00  0.00000000E+00
  0.00000000E+00  0.00000000E+00  0.00000000E+00
  0.00000000E+00  0.00000000E+00  0.00000000E+00
  0.00000000E+00  0.00000000E+00  0.00000000E+00
  0.00000000E+00  0.00000000E+00  0.00000000E+00
  0.00000000E+00  0.00000000E+00  0.00000000E+00
  0.00000000E+00  0.00000000E+00  0.00000000E+00
  0.00000000E+00  0.00000000E+00  0.00000000E+00
  0.00000000E+00  0.00000000E+00  0.00000000E+00
