Graphene-Borophene Top with lattice para
   1.00000000000000     
     4.3119404854427197    2.4895000000000000    0.0000000000000000
    -4.3119404854427197    2.4895000000000000    0.0000000000000000
     0.0000000000000000    0.0000000000000000   15.0000000000000000
   B    C 
     8     8
Direct
  0.6685294863562916  0.0000317435822481  0.1014908743568625
  0.3315012572259590  0.0000317435822481  0.1014908743568625
  0.9999682564177519  0.3314695136437109  0.1014908743568625
  0.9999682564177519  0.6684977427740435  0.1014908743568625
  0.3315012572259590  0.3314695136437109  0.1014908743568625
  0.6685294863562916  0.6684977427740435  0.1014908743568625
  0.6666659999999993  0.3333330000000032  0.0884552167655031
  0.3333330000000032  0.6666659999999993  0.1144240571333270
  0.1666535758978895  0.3333081517957908  0.3345686379028976
  0.3333305180394817  0.1666647590197385  0.3344662388815820
  0.1666535758978895  0.8333454241021130  0.3345686379028976
  0.3333330000000032  0.6666659999999993  0.3346260210588525
  0.6666659999999993  0.3333330000000032  0.3344448285477029
  0.8333342409802640  0.1666647590197385  0.3344662388815820
  0.6666908482042118  0.8333454241021130  0.3345686379028976
  0.8333342409802640  0.6666684819605209  0.3344662388815820
 
  0.00000000E+00  0.00000000E+00  0.00000000E+00
  0.00000000E+00  0.00000000E+00  0.00000000E+00
  0.00000000E+00  0.00000000E+00  0.00000000E+00
  0.00000000E+00  0.00000000E+00  0.00000000E+00
  0.00000000E+00  0.00000000E+00  0.00000000E+00
  0.00000000E+00  0.00000000E+00  0.00000000E+00
  0.00000000E+00  0.00000000E+00  0.00000000E+00
  0.00000000E+00  0.00000000E+00  0.00000000E+00
  0.00000000E+00  0.00000000E+00  0.00000000E+00
  0.00000000E+00  0.00000000E+00  0.00000000E+00
  0.00000000E+00  0.00000000E+00  0.00000000E+00
  0.00000000E+00  0.00000000E+00  0.00000000E+00
  0.00000000E+00  0.00000000E+00  0.00000000E+00
  0.00000000E+00  0.00000000E+00  0.00000000E+00
  0.00000000E+00  0.00000000E+00  0.00000000E+00
  0.00000000E+00  0.00000000E+00  0.00000000E+00
