Graphene-BC3 Hollow with lattice paramet
   1.00000000000000     
     4.3682321366887082    2.5219999999999998    0.0000000000000000
    -4.3682321366887082    2.5219999999999998    0.0000000000000000
     0.0000000000000000    0.0000000000000000   15.0000000000000000
   B    C 
     2    14
Direct
  0.3381889670243196  0.6690918867194311  0.1135223621755854
  0.6715247790861508  0.3357599894288328  0.1131948513975537
  0.1644686263688740  0.3216520957653179  0.1131745649166960
  0.3240054664359232  0.1620000626638226  0.1131834465498838
  0.1644707510136793  0.8428122604676861  0.1131735307838859
  0.8452784542129830  0.1619980488709767  0.1131750847239395
  0.6856238755144569  0.8428082358380973  0.1131659020222138
  0.8452795351635674  0.6832746889772457  0.1131740158091576
  0.3334955905125723  0.1667502946528540  0.3380327374126663
  0.5001865248914541  0.0001632655365506  0.3380071223438629
  0.3334746480166934  0.6667398250610500  0.3377132467839340
  0.5001865282063157  0.5000277032847802  0.3380071157326488
  0.8334689682626149  0.1667515600894023  0.3380280365648645
  0.0001462408485124  0.0000753717160567  0.3380123451599168
  0.8334690052398915  0.6667224659886241  0.3380280035736879
  0.0000573725353247  0.5000309116059659  0.3380076340495035
 
  0.00000000E+00  0.00000000E+00  0.00000000E+00
  0.00000000E+00  0.00000000E+00  0.00000000E+00
  0.00000000E+00  0.00000000E+00  0.00000000E+00
  0.00000000E+00  0.00000000E+00  0.00000000E+00
  0.00000000E+00  0.00000000E+00  0.00000000E+00
  0.00000000E+00  0.00000000E+00  0.00000000E+00
  0.00000000E+00  0.00000000E+00  0.00000000E+00
  0.00000000E+00  0.00000000E+00  0.00000000E+00
  0.00000000E+00  0.00000000E+00  0.00000000E+00
  0.00000000E+00  0.00000000E+00  0.00000000E+00
  0.00000000E+00  0.00000000E+00  0.00000000E+00
  0.00000000E+00  0.00000000E+00  0.00000000E+00
  0.00000000E+00  0.00000000E+00  0.00000000E+00
  0.00000000E+00  0.00000000E+00  0.00000000E+00
  0.00000000E+00  0.00000000E+00  0.00000000E+00
  0.00000000E+00  0.00000000E+00  0.00000000E+00
