k-points 27
0
Gamma
27    27    1
0    0    0