Graphene-Borophene Hollow 1 with lattice
   1.00000000000000     
     4.3102084346351512    2.4885000000000002    0.0000000000000000
    -4.3102084346351512    2.4885000000000002    0.0000000000000000
     0.0000000000000000    0.0000000000000000   15.0000000000000000
   B    C 
     8     8
Direct
  0.6707906305581728 -0.0022065128488459  0.1672474523049790
  0.3332550747266869 -0.0021234800170083  0.1669306352155018
  0.0022065128488459  0.3292083694418300  0.1672474523049790
  0.0021234800170083  0.6667439252733162  0.1669306352155018
  0.3330852958487001  0.3291259408572425  0.1667661394462561
  0.6708730591427601  0.6669137041513025  0.1667661394462561
  0.6685294641780732  0.3314695358219294  0.1557961572301778
  0.3352025118544861  0.6647964881455164  0.1796024332369230
  0.2757960228980904  0.2242347415281680  0.4024164699774735
  0.4424504182820804  0.0576075119153775  0.4024923945265720
  0.2757673254339144  0.7242316745660885  0.4024819980514339
  0.4424638333901852  0.5575351666098172  0.4025489030631312
  0.7757587363774148  0.2242402636225878  0.4024124174594138
  0.9424237767760544  0.0575752232239486  0.4022519080173655
  0.7757642584718345  0.7242029771019122  0.4024164699774735
  0.9423914880846248  0.5575485817179221  0.4024923945265720
 
  0.00000000E+00  0.00000000E+00  0.00000000E+00
  0.00000000E+00  0.00000000E+00  0.00000000E+00
  0.00000000E+00  0.00000000E+00  0.00000000E+00
  0.00000000E+00  0.00000000E+00  0.00000000E+00
  0.00000000E+00  0.00000000E+00  0.00000000E+00
  0.00000000E+00  0.00000000E+00  0.00000000E+00
  0.00000000E+00  0.00000000E+00  0.00000000E+00
  0.00000000E+00  0.00000000E+00  0.00000000E+00
  0.00000000E+00  0.00000000E+00  0.00000000E+00
  0.00000000E+00  0.00000000E+00  0.00000000E+00
  0.00000000E+00  0.00000000E+00  0.00000000E+00
  0.00000000E+00  0.00000000E+00  0.00000000E+00
  0.00000000E+00  0.00000000E+00  0.00000000E+00
  0.00000000E+00  0.00000000E+00  0.00000000E+00
  0.00000000E+00  0.00000000E+00  0.00000000E+00
  0.00000000E+00  0.00000000E+00  0.00000000E+00
