Graphene-BC3 Bridge with lattice paramet
   1.00000000000000     
     4.3725622637076311    2.5245000000000002    0.0000000000000000
    -4.3725622637076311    2.5245000000000002    0.0000000000000000
     0.0000000000000000    0.0000000000000000   15.0000000000000000
   B    C 
     2    14
Direct
  0.3236285616817148  0.6848815815041890  0.1011592032258295
  0.6570864641417344  0.3514448755656718  0.1010019429704754
  0.1500628299066899  0.3374219514106370  0.1008805777473488
  0.3094970256139101  0.1777933379141736  0.1006005546195022
  0.1498423636945210  0.8586566318682051  0.1004520018915841
  0.8308227022303277  0.1777094514647843  0.1010028058436526
  0.6710636117107101  0.8585011706831683  0.1008579526682190
  0.8306919800098586  0.6990129754991425  0.1005738978459085
  0.2646395561339746  0.2342789314987799  0.3256049003097931
  0.4312966400809776  0.0676817163966541  0.3255052410701203
  0.2646086170581539  0.7343747481146323  0.3252446755143218
  0.4313900454126495  0.5675945103456478  0.3255156678102424
  0.7646486997988288  0.2343290642766601  0.3254833521668261
  0.9313732256736860  0.0676122582772444  0.3256895563860290
  0.7647016111918866  0.7343421216751663  0.3255985055586276
  0.9313047323270791  0.5676900068385674  0.3254958310381764
 
  0.00000000E+00  0.00000000E+00  0.00000000E+00
  0.00000000E+00  0.00000000E+00  0.00000000E+00
  0.00000000E+00  0.00000000E+00  0.00000000E+00
  0.00000000E+00  0.00000000E+00  0.00000000E+00
  0.00000000E+00  0.00000000E+00  0.00000000E+00
  0.00000000E+00  0.00000000E+00  0.00000000E+00
  0.00000000E+00  0.00000000E+00  0.00000000E+00
  0.00000000E+00  0.00000000E+00  0.00000000E+00
  0.00000000E+00  0.00000000E+00  0.00000000E+00
  0.00000000E+00  0.00000000E+00  0.00000000E+00
  0.00000000E+00  0.00000000E+00  0.00000000E+00
  0.00000000E+00  0.00000000E+00  0.00000000E+00
  0.00000000E+00  0.00000000E+00  0.00000000E+00
  0.00000000E+00  0.00000000E+00  0.00000000E+00
  0.00000000E+00  0.00000000E+00  0.00000000E+00
  0.00000000E+00  0.00000000E+00  0.00000000E+00
