Graphene-BC3 Bridge with lattice paramet
   1.00000000000000     
     4.3725622637076311    2.5245000000000002    0.0000000000000000
    -4.3725622637076311    2.5245000000000002    0.0000000000000000
     0.0000000000000000    0.0000000000000000   15.0000000000000000
   B    C 
     2    14
Direct
  0.3383226694325215  0.6691750283585065  0.1002100817297010
  0.6716696970935655  0.3358290524570767  0.1001263861993468
  0.1645717133810066  0.3217453026528497  0.0999189957025994
  0.3241070057562934  0.1621108859225287  0.0999459137952890
  0.1645121766445752  0.8429905566322733  0.0999496931131390
  0.8453777835224495  0.1621217041275282  0.0999151553437201
  0.6857536492629254  0.8429230866788078  0.0999196807970320
  0.8453992991483320  0.6834016012503782  0.0999467454898274
  0.2499926832795698  0.2498531299926972  0.3264434193775559
  0.4165961555351139  0.0832857149306174  0.3264013483365436
  0.2499798277572913  0.7500203081307495  0.3262501395676728
  0.4167264538845324  0.5832693199752201  0.3262012669264107
  0.7500403126615784  0.2499542220473393  0.3261914555803714
  0.9167554975797098  0.0832391983259640  0.3264077060075831
  0.7501436945653558  0.7500059870689426  0.3264445152279686
  0.9167100471618843  0.5834002347818443  0.3263941634718962
 
  0.00000000E+00  0.00000000E+00  0.00000000E+00
  0.00000000E+00  0.00000000E+00  0.00000000E+00
  0.00000000E+00  0.00000000E+00  0.00000000E+00
  0.00000000E+00  0.00000000E+00  0.00000000E+00
  0.00000000E+00  0.00000000E+00  0.00000000E+00
  0.00000000E+00  0.00000000E+00  0.00000000E+00
  0.00000000E+00  0.00000000E+00  0.00000000E+00
  0.00000000E+00  0.00000000E+00  0.00000000E+00
  0.00000000E+00  0.00000000E+00  0.00000000E+00
  0.00000000E+00  0.00000000E+00  0.00000000E+00
  0.00000000E+00  0.00000000E+00  0.00000000E+00
  0.00000000E+00  0.00000000E+00  0.00000000E+00
  0.00000000E+00  0.00000000E+00  0.00000000E+00
  0.00000000E+00  0.00000000E+00  0.00000000E+00
  0.00000000E+00  0.00000000E+00  0.00000000E+00
  0.00000000E+00  0.00000000E+00  0.00000000E+00
