Graphene-Borophene Bridge with lattice p
   1.00000000000000     
     4.3154045870578575    2.4914999999999998    0.0000000000000000
    -4.3154045870578575    2.4914999999999998    0.0000000000000000
     0.0000000000000000    0.0000000000000000   15.0000000000000000
   B    C 
     8     8
Direct
  0.6727469180726720 -0.0041280941057688  0.1673899427048099
  0.3356567807817806 -0.0039866949409719  0.1673901008600672
  0.0041280941057688  0.3272520819273310  0.1673899427048099
  0.0039866949409719  0.6643422192182223  0.1673901008600672
  0.3354349374009248  0.3272770638692341  0.1662864803323951
  0.6727219361307684  0.6645640625990779  0.1662864803323951
  0.6704574738216105  0.3295415261783914  0.1543898761180757
  0.3371250227727610  0.6628739772272417  0.1794886463988601
  0.2459261379845905  0.2539651473960787  0.4020272049928315
  0.4126077541156666  0.0873616224719244  0.4020634280740983
  0.2460322903215012  0.7539667096785008  0.4021639913013714
  0.4126910961355507  0.5873079038644519  0.4021992241476890
  0.7458977322040743  0.2541012677959283  0.4020525075006413
  0.9125755677460606  0.0874234322539423  0.4019247739383310
  0.7460338526039236  0.7540728620154125  0.4020272049928314
  0.9126373775280786  0.5873912458843356  0.4020634280740983
 
  0.00000000E+00  0.00000000E+00  0.00000000E+00
  0.00000000E+00  0.00000000E+00  0.00000000E+00
  0.00000000E+00  0.00000000E+00  0.00000000E+00
  0.00000000E+00  0.00000000E+00  0.00000000E+00
  0.00000000E+00  0.00000000E+00  0.00000000E+00
  0.00000000E+00  0.00000000E+00  0.00000000E+00
  0.00000000E+00  0.00000000E+00  0.00000000E+00
  0.00000000E+00  0.00000000E+00  0.00000000E+00
  0.00000000E+00  0.00000000E+00  0.00000000E+00
  0.00000000E+00  0.00000000E+00  0.00000000E+00
  0.00000000E+00  0.00000000E+00  0.00000000E+00
  0.00000000E+00  0.00000000E+00  0.00000000E+00
  0.00000000E+00  0.00000000E+00  0.00000000E+00
  0.00000000E+00  0.00000000E+00  0.00000000E+00
  0.00000000E+00  0.00000000E+00  0.00000000E+00
  0.00000000E+00  0.00000000E+00  0.00000000E+00
