Graphene-B4C3 Top with lattice parameter
   1.00000000000000     
     4.2054193607772321    2.4279999999999990    0.0000000000000000
    -4.2054193607772321    2.4279999999999990    0.0000000000000000
     0.0000000000000000    0.0000000000000000   15.0000000000000000
   B    C 
     4    11
Direct
  0.0042064506851259  0.0028937729261270  0.1069218118424945
  0.3590903797282878  0.0031590233459322  0.1005413950867231
  0.0036166808651992  0.3572972388092615  0.1005349619471003
  0.6497762623097110  0.6477632198687763  0.1005525841166836
  0.3278423871007344  0.3261896833319431  0.1011482016120625
  0.6807088031838386  0.0028746149333697  0.1011942153169254
  0.0039087274554466  0.6791660615395989  0.1012007872822206
 -0.0000664281074114  0.4999815937447137  0.3339917254667558
  0.1667180092487326  0.3334136313727807  0.3339682798137777
  0.0000241848327089  0.0000120219667556  0.3338650588468165
  0.1667085334673364  0.8333032141887581  0.3339753250772175
  0.5000601163572597  0.4999538062979357  0.3339970168509391
  0.6666746566158689  0.3333426665809316  0.3336674294654901
  0.5000855282793278  0.0001035606013889  0.3339876730535585
  0.6666063746445264  0.8333132238250526  0.3339662008879173
 
  0.00000000E+00  0.00000000E+00  0.00000000E+00
  0.00000000E+00  0.00000000E+00  0.00000000E+00
  0.00000000E+00  0.00000000E+00  0.00000000E+00
  0.00000000E+00  0.00000000E+00  0.00000000E+00
  0.00000000E+00  0.00000000E+00  0.00000000E+00
  0.00000000E+00  0.00000000E+00  0.00000000E+00
  0.00000000E+00  0.00000000E+00  0.00000000E+00
  0.00000000E+00  0.00000000E+00  0.00000000E+00
  0.00000000E+00  0.00000000E+00  0.00000000E+00
  0.00000000E+00  0.00000000E+00  0.00000000E+00
  0.00000000E+00  0.00000000E+00  0.00000000E+00
  0.00000000E+00  0.00000000E+00  0.00000000E+00
  0.00000000E+00  0.00000000E+00  0.00000000E+00
  0.00000000E+00  0.00000000E+00  0.00000000E+00
  0.00000000E+00  0.00000000E+00  0.00000000E+00
