Graphene-B4C3 Top with lattice parameter
   1.00000000000000     
     4.2054193607772321    2.4279999999999990    0.0000000000000000
    -4.2054193607772321    2.4279999999999990    0.0000000000000000
     0.0000000000000000    0.0000000000000000   15.0000000000000000
   B    C 
     4    11
Direct
  0.0041796375310216  0.0027639425495930  0.1188258457065146
  0.3568458761666404  0.0030603564650281  0.0979768736614511
  0.0039055129046327  0.3551472321264655  0.0979782086283227
  0.6517938081614429  0.6501235184149630  0.0979698188632520
  0.3265192514250997  0.3247690275371669  0.1002631562651502
  0.6821896289183594  0.0031309269478125  0.1002453777948545
  0.0038494515417999  0.6804335050501586  0.1002387955094952
 -0.0000780902168147  0.5000120545802725  0.3337584874220885
  0.1666207046641484  0.3331493888216062  0.3338109976592937
  0.9999999428714598  0.0000027519522059  0.3336327801015789
  0.1665377194875856  0.8333850361181788  0.3338144902132649
  0.4999833341869065  0.4999077060700039  0.3337619488204291
  0.6666694093195706  0.3333322481537205  0.3336675707928757
  0.5000878053306999  0.0000783665472504  0.3337578332235543
  0.6668566743741399  0.8334712719988997  0.3338104820045569
 
  0.00000000E+00  0.00000000E+00  0.00000000E+00
  0.00000000E+00  0.00000000E+00  0.00000000E+00
  0.00000000E+00  0.00000000E+00  0.00000000E+00
  0.00000000E+00  0.00000000E+00  0.00000000E+00
  0.00000000E+00  0.00000000E+00  0.00000000E+00
  0.00000000E+00  0.00000000E+00  0.00000000E+00
  0.00000000E+00  0.00000000E+00  0.00000000E+00
  0.00000000E+00  0.00000000E+00  0.00000000E+00
  0.00000000E+00  0.00000000E+00  0.00000000E+00
  0.00000000E+00  0.00000000E+00  0.00000000E+00
  0.00000000E+00  0.00000000E+00  0.00000000E+00
  0.00000000E+00  0.00000000E+00  0.00000000E+00
  0.00000000E+00  0.00000000E+00  0.00000000E+00
  0.00000000E+00  0.00000000E+00  0.00000000E+00
  0.00000000E+00  0.00000000E+00  0.00000000E+00
