Graphene-Borophene Bridge with lattice p
   1.00000000000000     
     4.3084763838275819    2.4874999999999998    0.0000000000000000
    -4.3084763838275819    2.4874999999999998    0.0000000000000000
     0.0000000000000000    0.0000000000000000   15.0000000000000000
   B    C 
     8     8
Direct
  0.6740290981991116 -0.0051023711599315  0.1681925514623243
  0.3367417070572117 -0.0050196093303648  0.1685887392157754
  0.0051023711599315  0.3259699018008906  0.1681925514623243
  0.0050196093303648  0.6632572929427909  0.1685887392157754
  0.3363641087619884  0.3260871538890661  0.1665181356588916
  0.6739118461109364  0.6636348912380146  0.1665181356588916
  0.6713523139872604  0.3286466860127430  0.1546336771338571
  0.3380728127183538  0.6619261872816486  0.1803322249157975
  0.2448734320952647  0.2550451944993299  0.4013391751258965
  0.4115919865359563  0.0884369484908692  0.4013673783320211
  0.2449242053667139  0.7550747946332885  0.4014538954204968
  0.4116688922769064  0.5883301077230961  0.4014734896566226
  0.7449193890620939  0.2550796109379084  0.4013691547635573
  0.9115720369948043  0.0884269630051985  0.4012589318532234
  0.7449538055006725  0.7551255679047375  0.4013391751258965
  0.9115620515091331  0.5884070134640459  0.4013673783320211
 
  0.00000000E+00  0.00000000E+00  0.00000000E+00
  0.00000000E+00  0.00000000E+00  0.00000000E+00
  0.00000000E+00  0.00000000E+00  0.00000000E+00
  0.00000000E+00  0.00000000E+00  0.00000000E+00
  0.00000000E+00  0.00000000E+00  0.00000000E+00
  0.00000000E+00  0.00000000E+00  0.00000000E+00
  0.00000000E+00  0.00000000E+00  0.00000000E+00
  0.00000000E+00  0.00000000E+00  0.00000000E+00
  0.00000000E+00  0.00000000E+00  0.00000000E+00
  0.00000000E+00  0.00000000E+00  0.00000000E+00
  0.00000000E+00  0.00000000E+00  0.00000000E+00
  0.00000000E+00  0.00000000E+00  0.00000000E+00
  0.00000000E+00  0.00000000E+00  0.00000000E+00
  0.00000000E+00  0.00000000E+00  0.00000000E+00
  0.00000000E+00  0.00000000E+00  0.00000000E+00
  0.00000000E+00  0.00000000E+00  0.00000000E+00
