Graphene-Borophene Bridge with lattice p
   1.00000000000000     
     4.3084763838275819    2.4874999999999998    0.0000000000000000
    -4.3084763838275819    2.4874999999999998    0.0000000000000000
     0.0000000000000000    0.0000000000000000   15.0000000000000000
   B    C 
     8     8
Direct
  0.6706867656125719 -0.0021316402805049  0.1673137482846660
  0.3332904723680929 -0.0020208721694728  0.1672546353244355
  0.0021316402805049  0.3293122343874305  0.1673137482846660
  0.0020208721694728  0.6667085276319099  0.1672546353244355
  0.3331394535662842  0.3292355099678290  0.1663921873686158
  0.6707634900321735  0.6668595464337186  0.1663921873686158
  0.6684243139692519  0.3315746860307514  0.1550505673098757
  0.3351098227239364  0.6648891772760663  0.1798577195492852
  0.2480339099436400  0.2519075132111230  0.4019778313372261
  0.4147028811057725  0.0852721164258291  0.4018826225418082
  0.2480792360124192  0.7519197639875834  0.4019493027978447
  0.4147722442680447  0.5852267557319578  0.4021390146496228
  0.7480025879939677  0.2519964120060346  0.4019346417319373
  0.9146836062575181  0.0853153937424844  0.4019600375813032
  0.7480914867888794  0.7519650900563623  0.4019778313372261
  0.9147268835741734  0.5852961188942298  0.4018826225418082
 
  0.00000000E+00  0.00000000E+00  0.00000000E+00
  0.00000000E+00  0.00000000E+00  0.00000000E+00
  0.00000000E+00  0.00000000E+00  0.00000000E+00
  0.00000000E+00  0.00000000E+00  0.00000000E+00
  0.00000000E+00  0.00000000E+00  0.00000000E+00
  0.00000000E+00  0.00000000E+00  0.00000000E+00
  0.00000000E+00  0.00000000E+00  0.00000000E+00
  0.00000000E+00  0.00000000E+00  0.00000000E+00
  0.00000000E+00  0.00000000E+00  0.00000000E+00
  0.00000000E+00  0.00000000E+00  0.00000000E+00
  0.00000000E+00  0.00000000E+00  0.00000000E+00
  0.00000000E+00  0.00000000E+00  0.00000000E+00
  0.00000000E+00  0.00000000E+00  0.00000000E+00
  0.00000000E+00  0.00000000E+00  0.00000000E+00
  0.00000000E+00  0.00000000E+00  0.00000000E+00
  0.00000000E+00  0.00000000E+00  0.00000000E+00
