Graphene-Borophene Hollow 1 with lattice
   1.00000000000000     
     4.3647680350735678    2.5199999999999987    0.0000000000000000
    -4.3647680350735678    2.5199999999999987    0.0000000000000000
     0.0000000000000000    0.0000000000000000   15.0000000000000000
   B    C 
     8     8
Direct
  0.6703158439296019 -0.0014571354574645  0.1657795820838476
  0.3325638952754056 -0.0013042789553862  0.1659183615533759
  0.0014571354574645  0.3296831560704007  0.1657795820838476
  0.0013042789553862  0.6674351047245971  0.1659183615533759
  0.3324114776079455  0.3295670200226152  0.1660105997490856
  0.6704319799773870  0.6675875223920570  0.1660105997490856
  0.6678634673125533  0.3321355326874494  0.1639186714236305
  0.3346462440452304  0.6653527559547724  0.1681455924628497
  0.2764199998840235  0.2236040734456290  0.4036859162252791
  0.4430697614456426  0.0569436319594757  0.4036795031147115
  0.2764033862918843  0.7235956137081180  0.4035729441337602
  0.4430836539510027  0.5569153460489997  0.4037007741263930
  0.7764079042251329  0.2235910957748695  0.4036932587188074
  0.9430525659353700  0.0569464340646320  0.4036208336819693
  0.7763949265543729  0.7235790001159786  0.4036859162252791
  0.9430553680405266  0.5569292385543595  0.4036795031147115
 
  0.00000000E+00  0.00000000E+00  0.00000000E+00
  0.00000000E+00  0.00000000E+00  0.00000000E+00
  0.00000000E+00  0.00000000E+00  0.00000000E+00
  0.00000000E+00  0.00000000E+00  0.00000000E+00
  0.00000000E+00  0.00000000E+00  0.00000000E+00
  0.00000000E+00  0.00000000E+00  0.00000000E+00
  0.00000000E+00  0.00000000E+00  0.00000000E+00
  0.00000000E+00  0.00000000E+00  0.00000000E+00
  0.00000000E+00  0.00000000E+00  0.00000000E+00
  0.00000000E+00  0.00000000E+00  0.00000000E+00
  0.00000000E+00  0.00000000E+00  0.00000000E+00
  0.00000000E+00  0.00000000E+00  0.00000000E+00
  0.00000000E+00  0.00000000E+00  0.00000000E+00
  0.00000000E+00  0.00000000E+00  0.00000000E+00
  0.00000000E+00  0.00000000E+00  0.00000000E+00
  0.00000000E+00  0.00000000E+00  0.00000000E+00
