Borophene POSCAR test Reference lattice constant 5.05
        1.0
        4.174242    2.410000    0.000000
       -4.174242    2.410000    0.000000
        0.000000    0.000000    15.00000
        B
        8
        Direct
        0.666666    0.000000    0.100000
        0.333333    0.000000    0.100000
        0.000000    0.333333    0.100000
        0.000000    0.666666    0.100000
        0.333333    0.333333    0.100000
        0.666666    0.666666    0.100000
        0.666666    0.333333    0.110000
        0.333333    0.666666    0.090000
