Graphene-B4C3 Hollow 2 with lattice para
   1.00000000000000     
     4.2036873099696637    2.4269999999999992    0.0000000000000000
    -4.2036873099696637    2.4269999999999992    0.0000000000000000
     0.0000000000000000    0.0000000000000000   15.0000000000000000
   B    C 
     4    11
Direct
  0.0042206260790879  0.0028093884179483  0.1054270414933131
  0.3587407951592413  0.0027973306681138  0.1004333852480648
  0.0042784547934091  0.3573843021999421  0.1004347380345123
  0.6497376721803605  0.6482731054718052  0.1004615563525430
  0.3281684126830494  0.3267722035917773  0.1013230178231859
  0.6802512374388401  0.0027039918926280  0.1013708986148039
  0.0041348938740163  0.6788556716360826  0.1013807216382931
  0.1666649459351490  0.3332326820433498  0.3375625494272109
  0.3332213952069532  0.1666730155335142  0.3375641659673847
  0.1665386746709075  0.8332887105496772  0.3375650280420416
  0.3332983911617925  0.6666461798150549  0.3375192378347057
  0.6666385384406949  0.3333110447527142  0.3375193410309131
  0.8332793004681925  0.1665482098938981  0.3375637172310191
  0.6667198407020097  0.8334106400692751  0.3375604167359013
  0.8334008212063033  0.6667275234642304  0.3375601845261346
 
  0.00000000E+00  0.00000000E+00  0.00000000E+00
  0.00000000E+00  0.00000000E+00  0.00000000E+00
  0.00000000E+00  0.00000000E+00  0.00000000E+00
  0.00000000E+00  0.00000000E+00  0.00000000E+00
  0.00000000E+00  0.00000000E+00  0.00000000E+00
  0.00000000E+00  0.00000000E+00  0.00000000E+00
  0.00000000E+00  0.00000000E+00  0.00000000E+00
  0.00000000E+00  0.00000000E+00  0.00000000E+00
  0.00000000E+00  0.00000000E+00  0.00000000E+00
  0.00000000E+00  0.00000000E+00  0.00000000E+00
  0.00000000E+00  0.00000000E+00  0.00000000E+00
  0.00000000E+00  0.00000000E+00  0.00000000E+00
  0.00000000E+00  0.00000000E+00  0.00000000E+00
  0.00000000E+00  0.00000000E+00  0.00000000E+00
  0.00000000E+00  0.00000000E+00  0.00000000E+00
