Graphene-B4C3 Hollow 2 with lattice para
   1.00000000000000     
     4.2036873099696637    2.4269999999999992    0.0000000000000000
    -4.2036873099696637    2.4269999999999992    0.0000000000000000
     0.0000000000000000    0.0000000000000000   15.0000000000000000
   B    C 
     4    11
Direct
  0.0041697870994270  0.0027127098594154  0.1195911847151808
  0.3563630845466561  0.0028280651821247  0.0976874388559992
  0.0042160853013313  0.3549234782540132  0.0976906578260293
  0.6519981367869420  0.6506244131453723  0.0976794411310084
  0.3262201488177593  0.3248344313544386  0.1003142276437289
  0.6821546713962735  0.0027918341516464  0.1002904387921984
  0.0041849054353018  0.6807290449654655  0.1002823963229705
  0.1666264585896748  0.3333804865107737  0.3372329354726498
  0.3333807080742237  0.1666278985142310  0.3372334923322471
  0.1667488878170518  0.8333656075262302  0.3372343987145981
  0.3333340231564305  0.6666692832617851  0.3371546407191549
  0.6666688266564512  0.3333321505371605  0.3371546321869834
  0.8333641844856380  0.1667476341957537  0.3372343294669181
  0.6666173997776556  0.8332491538569187  0.3372331391265168
  0.8332466920591908  0.6666178086846821  0.3372326466938433
 
  0.00000000E+00  0.00000000E+00  0.00000000E+00
  0.00000000E+00  0.00000000E+00  0.00000000E+00
  0.00000000E+00  0.00000000E+00  0.00000000E+00
  0.00000000E+00  0.00000000E+00  0.00000000E+00
  0.00000000E+00  0.00000000E+00  0.00000000E+00
  0.00000000E+00  0.00000000E+00  0.00000000E+00
  0.00000000E+00  0.00000000E+00  0.00000000E+00
  0.00000000E+00  0.00000000E+00  0.00000000E+00
  0.00000000E+00  0.00000000E+00  0.00000000E+00
  0.00000000E+00  0.00000000E+00  0.00000000E+00
  0.00000000E+00  0.00000000E+00  0.00000000E+00
  0.00000000E+00  0.00000000E+00  0.00000000E+00
  0.00000000E+00  0.00000000E+00  0.00000000E+00
  0.00000000E+00  0.00000000E+00  0.00000000E+00
  0.00000000E+00  0.00000000E+00  0.00000000E+00
