Graphene-Borophene Top with lattice para
   1.00000000000000     
     4.3110744600389355    2.4889999999999999    0.0000000000000000
    -4.3110744600389355    2.4889999999999999    0.0000000000000000
     0.0000000000000000    0.0000000000000000   15.0000000000000000
   B    C 
     8     8
Direct
  0.6685366384672871  0.0000423331317190  0.1672071064996833
  0.3315046946644350  0.0000423331317190  0.1672071064996833
 -0.0000423331317190  0.3314623615327157  0.1672071064996833
 -0.0000423331317190  0.6684943053355679  0.1672071064996833
  0.3315046946644349  0.3314623615327157  0.1672071064996833
  0.6685366384672871  0.6684943053355679  0.1672071064996833
  0.6666659999999993  0.3333330000000032  0.1540497956095270
  0.3333330000000032  0.6666659999999993  0.1801458841302473
  0.1666527056018113  0.3333064112036271  0.4006016011333794
  0.3333372532502031  0.1666681266250992  0.4004986849625444
  0.1666527056018113  0.8333462943981915  0.4006016011333794
  0.3333330000000032  0.6666659999999993  0.4006516452890757
  0.6666659999999993  0.3333330000000032  0.4004758443519706
  0.8333308733749029  0.1666681266250992  0.4004986849625444
  0.6666925887963753  0.8333462943981915  0.4006016011333794
  0.8333308733749029  0.6666617467497995  0.4004986849625444
 
  0.00000000E+00  0.00000000E+00  0.00000000E+00
  0.00000000E+00  0.00000000E+00  0.00000000E+00
  0.00000000E+00  0.00000000E+00  0.00000000E+00
  0.00000000E+00  0.00000000E+00  0.00000000E+00
  0.00000000E+00  0.00000000E+00  0.00000000E+00
  0.00000000E+00  0.00000000E+00  0.00000000E+00
  0.00000000E+00  0.00000000E+00  0.00000000E+00
  0.00000000E+00  0.00000000E+00  0.00000000E+00
  0.00000000E+00  0.00000000E+00  0.00000000E+00
  0.00000000E+00  0.00000000E+00  0.00000000E+00
  0.00000000E+00  0.00000000E+00  0.00000000E+00
  0.00000000E+00  0.00000000E+00  0.00000000E+00
  0.00000000E+00  0.00000000E+00  0.00000000E+00
  0.00000000E+00  0.00000000E+00  0.00000000E+00
  0.00000000E+00  0.00000000E+00  0.00000000E+00
  0.00000000E+00  0.00000000E+00  0.00000000E+00
