Graphene-B4C3 Hollow 1 with lattice para
   1.00000000000000     
     4.2088834623923699    2.4299999999999988    0.0000000000000000
    -4.2088834623923699    2.4299999999999988    0.0000000000000000
     0.0000000000000000    0.0000000000000000   15.0000000000000000
   B    C 
     4    11
Direct
  0.0119354978227651 -0.0041344349374852  0.1009544684951710
  0.3671053893456349 -0.0041811383122026  0.1008813627792204
  0.0119944691298798  0.3509774237017344  0.1010101044330979
  0.6569529324177072  0.6406063549344092  0.1009675210442307
  0.3355886125461844  0.3192423248598502  0.1008702063982699
  0.6885518459762529 -0.0041721146935560  0.1008461144353070
  0.0119871357195454  0.6722822280396256  0.1008969269312507
  0.1042223262334991  0.3949865619217266  0.3381241251642014
  0.2709497672070068  0.2283476069879537  0.3382667787433988
  0.1042766962411649  0.8950030018798972  0.3381804732792311
  0.2710069164326226  0.7283415753194650  0.3381335352318272
  0.6042578131743243  0.3949632859582503  0.3381107806753496
  0.7709243978108928  0.2283036274135205  0.3381495156164741
  0.6042268383620919  0.8949921710719111  0.3382172594887221
  0.7708689171359782  0.7283199702993686  0.3381701606175693
 
  0.00000000E+00  0.00000000E+00  0.00000000E+00
  0.00000000E+00  0.00000000E+00  0.00000000E+00
  0.00000000E+00  0.00000000E+00  0.00000000E+00
  0.00000000E+00  0.00000000E+00  0.00000000E+00
  0.00000000E+00  0.00000000E+00  0.00000000E+00
  0.00000000E+00  0.00000000E+00  0.00000000E+00
  0.00000000E+00  0.00000000E+00  0.00000000E+00
  0.00000000E+00  0.00000000E+00  0.00000000E+00
  0.00000000E+00  0.00000000E+00  0.00000000E+00
  0.00000000E+00  0.00000000E+00  0.00000000E+00
  0.00000000E+00  0.00000000E+00  0.00000000E+00
  0.00000000E+00  0.00000000E+00  0.00000000E+00
  0.00000000E+00  0.00000000E+00  0.00000000E+00
  0.00000000E+00  0.00000000E+00  0.00000000E+00
  0.00000000E+00  0.00000000E+00  0.00000000E+00
