Graphene-B4C3 Hollow 2 with lattice para
   1.00000000000000     
     4.1309411760517714    2.3849999999999998    0.0000000000000000
    -4.1309411760517714    2.3849999999999998    0.0000000000000000
     0.0000000000000000    0.0000000000000000   15.0000000000000000
   B    C 
     4    11
Direct
  0.0043992126661562  0.0029178959548645  0.1090380611629606
  0.3590742132745311  0.0029209853102989  0.0991917362261931
  0.0044041889395251  0.3575934769561562  0.0991935174649520
  0.6497282590428568  0.6482447407425221  0.0991973777479103
  0.3285295210987506  0.3270455067868370  0.1003194833734542
  0.6802795496673055  0.0029202387545404  0.1003288374456941
  0.0044048172398894  0.6787970125552468  0.1003297352412608
  0.1664627312957055  0.3332129905978892  0.3379918017155532
  0.3331480828391784  0.1665270782472250  0.3379937211012269
  0.1664962521867905  0.8332213867278494  0.3379965203553962
  0.3331414132945481  0.6665414558055334  0.3378430006452804
  0.6664755778227038  0.3332060691706068  0.3378430124057257
  0.8331557759411569  0.1665608839781031  0.3379957116029362
  0.6664699271412949  0.8331891230278757  0.3379923032347441
  0.8331244775496151  0.6665351553844633  0.3379911802767395
 
  0.00000000E+00  0.00000000E+00  0.00000000E+00
  0.00000000E+00  0.00000000E+00  0.00000000E+00
  0.00000000E+00  0.00000000E+00  0.00000000E+00
  0.00000000E+00  0.00000000E+00  0.00000000E+00
  0.00000000E+00  0.00000000E+00  0.00000000E+00
  0.00000000E+00  0.00000000E+00  0.00000000E+00
  0.00000000E+00  0.00000000E+00  0.00000000E+00
  0.00000000E+00  0.00000000E+00  0.00000000E+00
  0.00000000E+00  0.00000000E+00  0.00000000E+00
  0.00000000E+00  0.00000000E+00  0.00000000E+00
  0.00000000E+00  0.00000000E+00  0.00000000E+00
  0.00000000E+00  0.00000000E+00  0.00000000E+00
  0.00000000E+00  0.00000000E+00  0.00000000E+00
  0.00000000E+00  0.00000000E+00  0.00000000E+00
  0.00000000E+00  0.00000000E+00  0.00000000E+00
