Graphene-BC3 Bridge with lattice paramet
   1.00000000000000     
     4.3344571459411148    2.5024999999999999    0.0000000000000000
    -4.3344571459411148    2.5024999999999999    0.0000000000000000
     0.0000000000000000    0.0000000000000000   15.0000000000000000
   B    C 
     2    14
Direct
  0.3168660249177536  0.6921038194710732  0.1011199818280337
  0.6503007853485334  0.3587074376810098  0.1010250116169327
  0.1434290867235490  0.3451695948730259  0.1016652533910489
  0.3033298232427716  0.1852384302836863  0.1010024263061679
  0.1434853675804015  0.8655559867115888  0.1004950310493095
  0.8237487311170780  0.1852051360046773  0.1017835525313339
  0.6638134940020985  0.8655409583469494  0.1012792242354891
  0.8237691824392293  0.7056436078791389  0.1005935600094690
  0.2713861653405799  0.2270197106650578  0.3252332064097343
  0.4380132748168201  0.0604780873133100  0.3251646884556216
  0.2713348844197178  0.7271787668000196  0.3250163547317221
  0.4381113930102848  0.5603934505412137  0.3253220194487531
  0.7714041636059902  0.2271061058771736  0.3253692134327343
  0.9381494549400057  0.0603604610077644  0.3252158137416669
  0.7714835516149889  0.7271224651326919  0.3252253982943435
  0.9380332835469027  0.5605013147449425  0.3251559311842975
 
  0.00000000E+00  0.00000000E+00  0.00000000E+00
  0.00000000E+00  0.00000000E+00  0.00000000E+00
  0.00000000E+00  0.00000000E+00  0.00000000E+00
  0.00000000E+00  0.00000000E+00  0.00000000E+00
  0.00000000E+00  0.00000000E+00  0.00000000E+00
  0.00000000E+00  0.00000000E+00  0.00000000E+00
  0.00000000E+00  0.00000000E+00  0.00000000E+00
  0.00000000E+00  0.00000000E+00  0.00000000E+00
  0.00000000E+00  0.00000000E+00  0.00000000E+00
  0.00000000E+00  0.00000000E+00  0.00000000E+00
  0.00000000E+00  0.00000000E+00  0.00000000E+00
  0.00000000E+00  0.00000000E+00  0.00000000E+00
  0.00000000E+00  0.00000000E+00  0.00000000E+00
  0.00000000E+00  0.00000000E+00  0.00000000E+00
  0.00000000E+00  0.00000000E+00  0.00000000E+00
  0.00000000E+00  0.00000000E+00  0.00000000E+00
