Graphene-B4C3 Hollow 1 with lattice para
   1.00000000000000     
     4.2062853861810181    2.4285000000000001    0.0000000000000000
    -4.2062853861810181    2.4285000000000001    0.0000000000000000
     0.0000000000000000    0.0000000000000000   15.0000000000000000
   B    C 
     4    11
Direct
  0.0420257620359508 -0.0305780712312549  0.1018730196509740
  0.3970816633407303 -0.0295286404900905  0.0990109429082116
  0.0408797112126435  0.3240388893093125  0.0996207717360471
  0.6856339665591789  0.6147097535144207  0.0994174367672663
  0.3649313264120967  0.2933374950650806  0.0994361042288788
  0.7178703302411807 -0.0296399413181976  0.1000814352690982
  0.0409971347715341  0.6456373117126503  0.0995321342809470
  0.0786480511786398  0.4179127923312367  0.3391804097894585
  0.2451775252537055  0.2511083687075560  0.3389697149145434
  0.0786944322549067  0.9178381633398653  0.3389806552496047
  0.2453609088708963  0.7511879907666423  0.3391160293013109
  0.5786447752810976  0.4178283269633846  0.3392086485305493
  0.7452547663181135  0.2511030125142156  0.3391123268288428
  0.5784676475047918  0.9177453522862745  0.3392510321182947
  0.7451815543200825  0.7511776409733714  0.3389886717592951
 
  0.00000000E+00  0.00000000E+00  0.00000000E+00
  0.00000000E+00  0.00000000E+00  0.00000000E+00
  0.00000000E+00  0.00000000E+00  0.00000000E+00
  0.00000000E+00  0.00000000E+00  0.00000000E+00
  0.00000000E+00  0.00000000E+00  0.00000000E+00
  0.00000000E+00  0.00000000E+00  0.00000000E+00
  0.00000000E+00  0.00000000E+00  0.00000000E+00
  0.00000000E+00  0.00000000E+00  0.00000000E+00
  0.00000000E+00  0.00000000E+00  0.00000000E+00
  0.00000000E+00  0.00000000E+00  0.00000000E+00
  0.00000000E+00  0.00000000E+00  0.00000000E+00
  0.00000000E+00  0.00000000E+00  0.00000000E+00
  0.00000000E+00  0.00000000E+00  0.00000000E+00
  0.00000000E+00  0.00000000E+00  0.00000000E+00
  0.00000000E+00  0.00000000E+00  0.00000000E+00
