Graphene-Borophene Top with lattice para
   1.00000000000000     
     4.3145385616540723    2.4909999999999997    0.0000000000000000
    -4.3145385616540723    2.4909999999999997    0.0000000000000000
     0.0000000000000000    0.0000000000000000   15.0000000000000000
   B    C 
     8     8
Direct
  0.6685123630611051  0.0000362768785673  0.1671952186862462
  0.3315229138174647  0.0000362768785673  0.1671952186862462
 -0.0000362768785673  0.3314866369388976  0.1671952186862462
 -0.0000362768785673  0.6684760861825381  0.1671952186862462
  0.3315229138174647  0.3314866369388976  0.1671952186862462
  0.6685123630611051  0.6684760861825381  0.1671952186862462
  0.6666659999999993  0.3333330000000032  0.1542406840869386
  0.3333330000000032  0.6666659999999993  0.1799263245970441
  0.1666491836183477  0.3332993672366999  0.4006120136853403
  0.3333385095574112  0.1666687547787033  0.4005189045125048
  0.1666491836183477  0.8333498163816554  0.4006120136853403
  0.3333330000000032  0.6666659999999993  0.4006483215896683
  0.6666659999999993  0.3333330000000032  0.4004872696820279
  0.8333302452212991  0.1666687547787033  0.4005189045125048
  0.6666996327633030  0.8333498163816554  0.4006120136853403
  0.8333302452212992  0.6666604904425908  0.4005189045125048
 
  0.00000000E+00  0.00000000E+00  0.00000000E+00
  0.00000000E+00  0.00000000E+00  0.00000000E+00
  0.00000000E+00  0.00000000E+00  0.00000000E+00
  0.00000000E+00  0.00000000E+00  0.00000000E+00
  0.00000000E+00  0.00000000E+00  0.00000000E+00
  0.00000000E+00  0.00000000E+00  0.00000000E+00
  0.00000000E+00  0.00000000E+00  0.00000000E+00
  0.00000000E+00  0.00000000E+00  0.00000000E+00
  0.00000000E+00  0.00000000E+00  0.00000000E+00
  0.00000000E+00  0.00000000E+00  0.00000000E+00
  0.00000000E+00  0.00000000E+00  0.00000000E+00
  0.00000000E+00  0.00000000E+00  0.00000000E+00
  0.00000000E+00  0.00000000E+00  0.00000000E+00
  0.00000000E+00  0.00000000E+00  0.00000000E+00
  0.00000000E+00  0.00000000E+00  0.00000000E+00
  0.00000000E+00  0.00000000E+00  0.00000000E+00
