Graphene-BC3 Bridge with lattice paramet
   1.00000000000000     
     4.3604379080546485    2.5175000000000001    0.0000000000000000
    -4.3604379080546485    2.5175000000000001    0.0000000000000000
     0.0000000000000000    0.0000000000000000   15.0000000000000000
   B    C 
     2    14
Direct
  0.3349091254683654  0.6727821454096616  0.0997975327647784
  0.6682941799533006  0.3394110678774101  0.0997319965515290
  0.1611822936478572  0.3254808819434682  0.0986177295436994
  0.3208901246219666  0.1657391296090482  0.1003286695839572
  0.1611803912604163  0.8464913094673234  0.1011536072430352
  0.8419336715392035  0.1657912197053118  0.0978672692525709
  0.6822207947802846  0.8464868886219955  0.0986853648902542
  0.8420084442031107  0.6868408954678298  0.1003986853639461
  0.2533610683711860  0.2462562689521151  0.3268351334900597
  0.4199881812540301  0.0796754884256431  0.3268031678870469
  0.2533438440781085  0.7464477928882810  0.3267057395773719
  0.4201246277408224  0.5796727660888776  0.3266700315883346
  0.7533904288638225  0.2463972677425947  0.3266706060408290
  0.9201792525269715  0.0796152808946430  0.3267658434865143
  0.7535321698445264  0.7464293126784878  0.3268369514758883
  0.9201200685127333  0.5798076175606313  0.3267983379268419
 
  0.00000000E+00  0.00000000E+00  0.00000000E+00
  0.00000000E+00  0.00000000E+00  0.00000000E+00
  0.00000000E+00  0.00000000E+00  0.00000000E+00
  0.00000000E+00  0.00000000E+00  0.00000000E+00
  0.00000000E+00  0.00000000E+00  0.00000000E+00
  0.00000000E+00  0.00000000E+00  0.00000000E+00
  0.00000000E+00  0.00000000E+00  0.00000000E+00
  0.00000000E+00  0.00000000E+00  0.00000000E+00
  0.00000000E+00  0.00000000E+00  0.00000000E+00
  0.00000000E+00  0.00000000E+00  0.00000000E+00
  0.00000000E+00  0.00000000E+00  0.00000000E+00
  0.00000000E+00  0.00000000E+00  0.00000000E+00
  0.00000000E+00  0.00000000E+00  0.00000000E+00
  0.00000000E+00  0.00000000E+00  0.00000000E+00
  0.00000000E+00  0.00000000E+00  0.00000000E+00
  0.00000000E+00  0.00000000E+00  0.00000000E+00
