Graphene-BC3 Bridge with lattice paramet
   1.00000000000000     
     4.3604379080546485    2.5175000000000001    0.0000000000000000
    -4.3604379080546485    2.5175000000000001    0.0000000000000000
     0.0000000000000000    0.0000000000000000   15.0000000000000000
   B    C 
     2    14
Direct
  0.3352357448987185  0.6724461847180425  0.0998072361568380
  0.6685860363738112  0.3391003113326806  0.0997220208229686
  0.1615877175550212  0.3251954151097294  0.0986938166156284
  0.3212066545919987  0.1654786926838027  0.1003176508013785
  0.1615222993457678  0.8461743080288914  0.1011664376817930
  0.8422115259725411  0.1654654398481362  0.0979139499848363
  0.6824868943763286  0.8460906013899194  0.0987611267481608
  0.8422193499841629  0.6864874065578753  0.1003859405213815
  0.2530856328100727  0.2465913751045775  0.3268188492162107
  0.4196813908344051  0.0800255998324602  0.3268151052672736
  0.2530612343318456  0.7467538010242227  0.3266628212577813
  0.4198103927281855  0.5799993199775205  0.3266163976879735
  0.7531237845104187  0.2466856963023810  0.3265871492598865
  0.9198352527961557  0.0799733255832075  0.3267677165854351
  0.7532201253791044  0.7467280676921101  0.3268214261473669
  0.9197846301781680  0.5801297881477653  0.3268090219117442
 
  0.00000000E+00  0.00000000E+00  0.00000000E+00
  0.00000000E+00  0.00000000E+00  0.00000000E+00
  0.00000000E+00  0.00000000E+00  0.00000000E+00
  0.00000000E+00  0.00000000E+00  0.00000000E+00
  0.00000000E+00  0.00000000E+00  0.00000000E+00
  0.00000000E+00  0.00000000E+00  0.00000000E+00
  0.00000000E+00  0.00000000E+00  0.00000000E+00
  0.00000000E+00  0.00000000E+00  0.00000000E+00
  0.00000000E+00  0.00000000E+00  0.00000000E+00
  0.00000000E+00  0.00000000E+00  0.00000000E+00
  0.00000000E+00  0.00000000E+00  0.00000000E+00
  0.00000000E+00  0.00000000E+00  0.00000000E+00
  0.00000000E+00  0.00000000E+00  0.00000000E+00
  0.00000000E+00  0.00000000E+00  0.00000000E+00
  0.00000000E+00  0.00000000E+00  0.00000000E+00
  0.00000000E+00  0.00000000E+00  0.00000000E+00
