Graphene-B4C3 Hollow 1 with lattice para
   1.00000000000000     
     4.1941610305280363    2.4215000000000000    0.0000000000000000
    -4.1941610305280363    2.4215000000000000    0.0000000000000000
     0.0000000000000000    0.0000000000000000   15.0000000000000000
   B    C 
     4    11
Direct
  0.0261518503409506 -0.0169305008945771  0.1036821324123067
  0.3812355411905659 -0.0169020859208059  0.1002975574935609
  0.0261031506801495  0.3380912852635454  0.1002779588042960
  0.6713175502780294  0.6279811263054417  0.1002974209607894
  0.3500650477512029  0.3065531115614158  0.1005311746150609
  0.7027719901495143 -0.0167180906354402  0.1007541310996000
  0.0261865837827097  0.6592430381290427  0.1005702445007248
  0.0917876113643323  0.4061252152821761  0.3381650054024083
  0.2584883682400085  0.2395562949006728  0.3382055509444569
  0.0918095413593581  0.9061230141126744  0.3381882561009789
  0.2585223804531407  0.7395334977650049  0.3381363778259178
  0.5917838804879545  0.4061182775891079  0.3381859200716276
  0.7584495885709014  0.2394776506646280  0.3381000307693673
  0.5917680538907356  0.9061351748581183  0.3382560133248237
  0.7584084170159960  0.7394914354634626  0.3381315590074010
 
  0.00000000E+00  0.00000000E+00  0.00000000E+00
  0.00000000E+00  0.00000000E+00  0.00000000E+00
  0.00000000E+00  0.00000000E+00  0.00000000E+00
  0.00000000E+00  0.00000000E+00  0.00000000E+00
  0.00000000E+00  0.00000000E+00  0.00000000E+00
  0.00000000E+00  0.00000000E+00  0.00000000E+00
  0.00000000E+00  0.00000000E+00  0.00000000E+00
  0.00000000E+00  0.00000000E+00  0.00000000E+00
  0.00000000E+00  0.00000000E+00  0.00000000E+00
  0.00000000E+00  0.00000000E+00  0.00000000E+00
  0.00000000E+00  0.00000000E+00  0.00000000E+00
  0.00000000E+00  0.00000000E+00  0.00000000E+00
  0.00000000E+00  0.00000000E+00  0.00000000E+00
  0.00000000E+00  0.00000000E+00  0.00000000E+00
  0.00000000E+00  0.00000000E+00  0.00000000E+00
