Graphene-B4C3 Top with lattice parameter
   1.00000000000000     
     4.1846347510864073    2.4159999999999999    0.0000000000000000
    -4.1846347510864073    2.4159999999999999    0.0000000000000000
     0.0000000000000000    0.0000000000000000   15.0000000000000000
   B    C 
     4    11
Direct
  0.0040357150104355  0.0026849047477908  0.1022231184045283
  0.3592078470202146  0.0029464178515887  0.1003894088055012
  0.0037622659042180  0.3575874235778878  0.1003901108810545
  0.6491273408403011  0.6475089599802651  0.1003866656738945
  0.3278844380553494  0.3262611403345170  0.1005353074816042
  0.6804514333283598  0.0029509019293421  0.1005335775034497
  0.0037621439686540  0.6788286049160944  0.1005306317820397
  0.0001507070821169  0.5000755028130937  0.3348186286071597
  0.1668031388537420  0.3334652333608727  0.3348557622840103
  0.0001328907361343  0.0000824877418505  0.3347803147476704
  0.1668442896909109  0.8334131219116173  0.3348594620187869
  0.5001422746814730  0.5001106746431343  0.3348213940186621
  0.6667996165225939  0.3334173929344318  0.3347156001638543
  0.5001057209990772  0.0000645593637871  0.3348169338501734
  0.6667508439731119  0.8333700072270532  0.3348557504442933
 
  0.00000000E+00  0.00000000E+00  0.00000000E+00
  0.00000000E+00  0.00000000E+00  0.00000000E+00
  0.00000000E+00  0.00000000E+00  0.00000000E+00
  0.00000000E+00  0.00000000E+00  0.00000000E+00
  0.00000000E+00  0.00000000E+00  0.00000000E+00
  0.00000000E+00  0.00000000E+00  0.00000000E+00
  0.00000000E+00  0.00000000E+00  0.00000000E+00
  0.00000000E+00  0.00000000E+00  0.00000000E+00
  0.00000000E+00  0.00000000E+00  0.00000000E+00
  0.00000000E+00  0.00000000E+00  0.00000000E+00
  0.00000000E+00  0.00000000E+00  0.00000000E+00
  0.00000000E+00  0.00000000E+00  0.00000000E+00
  0.00000000E+00  0.00000000E+00  0.00000000E+00
  0.00000000E+00  0.00000000E+00  0.00000000E+00
  0.00000000E+00  0.00000000E+00  0.00000000E+00
