Graphene-Borophene Bridge with lattice p
   1.00000000000000     
     4.3474475269978816    2.5099999999999998    0.0000000000000000
    -4.3474475269978816    2.5099999999999998    0.0000000000000000
     0.0000000000000000    0.0000000000000000   15.0000000000000000
   B    C 
     8     8
Direct
  0.6695648688665027 -0.0000204839637629  0.1635219062840440
  0.3308113775261267  0.0000869167797014  0.1637146882996480
  0.0000204839637629  0.3304341311335000  0.1635219062840440
 -0.0000869167797015  0.6691876224738760  0.1637146882996480
  0.3308678974099853  0.3307354085606758  0.1637435992296936
  0.6692635914393267  0.6691311025900173  0.1637435992296936
  0.6666185362457160  0.3333804637542868  0.1828043473867742
  0.3332802549467913  0.6667187450532114  0.1602672447899404
  0.2530897015602411  0.2533070853717222  0.4038866345307792
  0.4187998799559414  0.0823055554739673  0.4029806844672984
  0.2503964952773251  0.7496025047226774  0.4023763406653447
  0.4158896508111858  0.5841093491888169  0.4033543670254046
  0.7480136545642857  0.2519853454357168  0.4035966459739624
  0.9157448317248990  0.0842541682751037  0.4044393618690193
  0.7466919146282804  0.7469092984397612  0.4038866345307792
  0.9176934445260352  0.5811991200440609  0.4029806844672984
 
  0.00000000E+00  0.00000000E+00  0.00000000E+00
  0.00000000E+00  0.00000000E+00  0.00000000E+00
  0.00000000E+00  0.00000000E+00  0.00000000E+00
  0.00000000E+00  0.00000000E+00  0.00000000E+00
  0.00000000E+00  0.00000000E+00  0.00000000E+00
  0.00000000E+00  0.00000000E+00  0.00000000E+00
  0.00000000E+00  0.00000000E+00  0.00000000E+00
  0.00000000E+00  0.00000000E+00  0.00000000E+00
  0.00000000E+00  0.00000000E+00  0.00000000E+00
  0.00000000E+00  0.00000000E+00  0.00000000E+00
  0.00000000E+00  0.00000000E+00  0.00000000E+00
  0.00000000E+00  0.00000000E+00  0.00000000E+00
  0.00000000E+00  0.00000000E+00  0.00000000E+00
  0.00000000E+00  0.00000000E+00  0.00000000E+00
  0.00000000E+00  0.00000000E+00  0.00000000E+00
  0.00000000E+00  0.00000000E+00  0.00000000E+00
