Graphene-Borophene Bridge with lattice p
   1.00000000000000     
     4.3474483930232850    2.5100004999999999    0.0000000000000000
    -4.3474483930232850    2.5100004999999999    0.0000000000000000
     0.0000000000000000    0.0000000000000000   15.0000000000000000
   B    C 
     8     8
Direct
  0.6692771328834466 -0.0000001232311024  0.1000396708012712
  0.3307221095340931 -0.0000000683817170  0.1000397970046292
  0.0000001232311024  0.3307218671165559  0.1000396708012712
  0.0000000683817170  0.6692768904659093  0.1000397970046292
  0.3307219582493993  0.3307219009099092  0.1000398163773416
  0.6692770990900934  0.6692770417506032  0.1000398163773416
  0.6666659996669878  0.3333330003330148  0.0992735893299955
  0.3333327246468583  0.6666662753531443  0.1008163727642125
  0.2500000149920579  0.2500011616317795  0.4690259484141048
  0.4166673697990305  0.0833317798172540  0.4690252434085886
  0.2499989945535627  0.7500000054464399  0.4690247556092776
  0.4166664024154735  0.5833325975845292  0.4690255466654150
  0.7499981594454322  0.2500008405545703  0.4690257258260324
  0.9166664512264773  0.0833325487735252  0.4690263911265681
  0.7499978383682230  0.7499989850079446  0.4690259484141048
  0.9166672201827486  0.5833316302009721  0.4690252434085886
 
  0.00000000E+00  0.00000000E+00  0.00000000E+00
  0.00000000E+00  0.00000000E+00  0.00000000E+00
  0.00000000E+00  0.00000000E+00  0.00000000E+00
  0.00000000E+00  0.00000000E+00  0.00000000E+00
  0.00000000E+00  0.00000000E+00  0.00000000E+00
  0.00000000E+00  0.00000000E+00  0.00000000E+00
  0.00000000E+00  0.00000000E+00  0.00000000E+00
  0.00000000E+00  0.00000000E+00  0.00000000E+00
  0.00000000E+00  0.00000000E+00  0.00000000E+00
  0.00000000E+00  0.00000000E+00  0.00000000E+00
  0.00000000E+00  0.00000000E+00  0.00000000E+00
  0.00000000E+00  0.00000000E+00  0.00000000E+00
  0.00000000E+00  0.00000000E+00  0.00000000E+00
  0.00000000E+00  0.00000000E+00  0.00000000E+00
  0.00000000E+00  0.00000000E+00  0.00000000E+00
  0.00000000E+00  0.00000000E+00  0.00000000E+00
