Graphene-Borophene Hollow 2 with lattice
   1.00000000000000     
     4.3647680350735678    2.5199999999999987    0.0000000000000000
    -4.3647680350735678    2.5199999999999987    0.0000000000000000
     0.0000000000000000    0.0000000000000000   15.0000000000000000
   B    C 
     8     8
Direct
  0.6689568886776333 -0.0000275824774226  0.1660663104587057
  0.3310145288449465 -0.0000275824774226  0.1660663104587056
  0.0000275824774226  0.3310421113223694  0.1660663104587056
  0.0000275824774226  0.6689844711550559  0.1660663104587056
  0.3310145288449465  0.3310421113223694  0.1660663104587056
  0.6689568886776334  0.6689844711550559  0.1660663104587056
  0.6666659999999993  0.3333330000000032  0.1648441001079359
  0.3333330000000032  0.6666659999999993  0.1679608653219647
  0.3333662093552668  0.1666831046776405  0.4044459726138077
  0.5000133723893099  0.0000267447786197  0.4045116313420672
  0.3333326666666636  0.6666663333333389  0.4043374821401068
  0.5000133723893099  0.4999856276106927  0.4045116313420672
  0.8333158953223623  0.1666831046776405  0.4044459726138077
  0.9999996666666675  0.9999993333333350  0.4043868778101244
  0.8333158953223623  0.6666327906447351  0.4044459726138077
 -0.0000277447786171  0.4999856276106927  0.4045116313420672
 
  0.00000000E+00  0.00000000E+00  0.00000000E+00
  0.00000000E+00  0.00000000E+00  0.00000000E+00
  0.00000000E+00  0.00000000E+00  0.00000000E+00
  0.00000000E+00  0.00000000E+00  0.00000000E+00
  0.00000000E+00  0.00000000E+00  0.00000000E+00
  0.00000000E+00  0.00000000E+00  0.00000000E+00
  0.00000000E+00  0.00000000E+00  0.00000000E+00
  0.00000000E+00  0.00000000E+00  0.00000000E+00
  0.00000000E+00  0.00000000E+00  0.00000000E+00
  0.00000000E+00  0.00000000E+00  0.00000000E+00
  0.00000000E+00  0.00000000E+00  0.00000000E+00
  0.00000000E+00  0.00000000E+00  0.00000000E+00
  0.00000000E+00  0.00000000E+00  0.00000000E+00
  0.00000000E+00  0.00000000E+00  0.00000000E+00
  0.00000000E+00  0.00000000E+00  0.00000000E+00
  0.00000000E+00  0.00000000E+00  0.00000000E+00
