Graphene-Borophene Hollow 2 with lattice
   1.00000000000000     
     4.2824956217140491    2.4725000000000001    0.0000000000000000
    -4.2824956217140491    2.4725000000000001    0.0000000000000000
     0.0000000000000000    0.0000000000000000   15.0000000000000000
   B    C 
     8     8
Direct
  0.6690053734196837 -0.0001457517865293  0.1669610625057905
  0.3308478747937896 -0.0001457517865293  0.1669610625057905
  0.0001457517865293  0.3309936265803191  0.1669610625057905
  0.0001457517865293  0.6691511252062126  0.1669610625057905
  0.3308478747937896  0.3309936265803191  0.1669610625057905
  0.6690053734196837  0.6691511252062126  0.1669610625057905
  0.6666659999999993  0.3333330000000032  0.1795895977491520
  0.3333330000000032  0.6666659999999993  0.1532387339514512
  0.3333304571126078  0.1666652285563110  0.4038190174111277
  0.5000227087826022  0.0000454175652037  0.4038093918853610
  0.3333326666666636  0.6666663333333389  0.4036348873191126
  0.5000227087826022  0.4999762912174012  0.4038093918853610
  0.8333337714436909  0.1666652285563110  0.4038190174111277
  0.9999996666666675  0.9999993333333350  0.4036851780560670
  0.8333337714436909  0.6666685428873946  0.4038190174111277
 -0.0000464175652011  0.4999762912174012  0.4038093918853610
 
  0.00000000E+00  0.00000000E+00  0.00000000E+00
  0.00000000E+00  0.00000000E+00  0.00000000E+00
  0.00000000E+00  0.00000000E+00  0.00000000E+00
  0.00000000E+00  0.00000000E+00  0.00000000E+00
  0.00000000E+00  0.00000000E+00  0.00000000E+00
  0.00000000E+00  0.00000000E+00  0.00000000E+00
  0.00000000E+00  0.00000000E+00  0.00000000E+00
  0.00000000E+00  0.00000000E+00  0.00000000E+00
  0.00000000E+00  0.00000000E+00  0.00000000E+00
  0.00000000E+00  0.00000000E+00  0.00000000E+00
  0.00000000E+00  0.00000000E+00  0.00000000E+00
  0.00000000E+00  0.00000000E+00  0.00000000E+00
  0.00000000E+00  0.00000000E+00  0.00000000E+00
  0.00000000E+00  0.00000000E+00  0.00000000E+00
  0.00000000E+00  0.00000000E+00  0.00000000E+00
  0.00000000E+00  0.00000000E+00  0.00000000E+00
