Graphene-B4C3 Top with lattice parameter
   1.00000000000000     
     4.1222809220139274    2.3799999999999999    0.0000000000000000
    -4.1222809220139274    2.3799999999999999    0.0000000000000000
     0.0000000000000000    0.0000000000000000   15.0000000000000000
   B    C 
     4    11
Direct
  0.0040382785999419  0.0026826052514342  0.1149943338177287
  0.3578536256850555  0.0028568216068519  0.0982329826198849
  0.0038543802340197  0.3563143972702577  0.0982332147969945
  0.6503978538276438  0.6488602309996705  0.0982307796937754
  0.3278979154589368  0.3263386727620082  0.1001581741918263
  0.6803728935289742  0.0028759714299897  0.1001627582839294
  0.0038331063327935  0.6788131473393506  0.1001602697044543
  0.0001475692735530  0.5000837948306709  0.3341805785842412
  0.1668262962741938  0.3335144494252475  0.3342198289255675
  0.0001308104095773  0.0000856178213910  0.3340749617582491
  0.1668619519694200  0.8333906389730917  0.3342241216123006
  0.5001358666389033  0.5001082659966914  0.3341836663986008
  0.6667968913989866  0.3334202816324814  0.3340578219624302
  0.5001107477398701  0.0000692299096159  0.3341794938490996
  0.6667024792948230  0.8333532080845740  0.3342196804676000
 
  0.00000000E+00  0.00000000E+00  0.00000000E+00
  0.00000000E+00  0.00000000E+00  0.00000000E+00
  0.00000000E+00  0.00000000E+00  0.00000000E+00
  0.00000000E+00  0.00000000E+00  0.00000000E+00
  0.00000000E+00  0.00000000E+00  0.00000000E+00
  0.00000000E+00  0.00000000E+00  0.00000000E+00
  0.00000000E+00  0.00000000E+00  0.00000000E+00
  0.00000000E+00  0.00000000E+00  0.00000000E+00
  0.00000000E+00  0.00000000E+00  0.00000000E+00
  0.00000000E+00  0.00000000E+00  0.00000000E+00
  0.00000000E+00  0.00000000E+00  0.00000000E+00
  0.00000000E+00  0.00000000E+00  0.00000000E+00
  0.00000000E+00  0.00000000E+00  0.00000000E+00
  0.00000000E+00  0.00000000E+00  0.00000000E+00
  0.00000000E+00  0.00000000E+00  0.00000000E+00
