Graphene-BC3 Hollow with lattice paramet
   1.00000000000000     
     4.3994090512249464    2.5399999999999991    0.0000000000000000
    -4.3994090512249464    2.5399999999999991    0.0000000000000000
     0.0000000000000000    0.0000000000000000   15.0000000000000000
   B    C 
     2    14
Direct
  0.3383301804722589  0.6691645729333477  0.1002791920861738
  0.6716679058327351  0.3358329921239725  0.0999687178552345
  0.1643879367402232  0.3212775326972581  0.0999598510674934
  0.3236983685711209  0.1618495698628108  0.0999663799762616
  0.1643877299647707  0.8431093183038437  0.0999598690563171
  0.8456419255886251  0.1618482408744067  0.0999651202945783
  0.6862135220581345  0.8431059322387112  0.0999584535837274
  0.8456417744245046  0.6837940049495973  0.0999651473213504
  0.3333556837106275  0.1666775683126632  0.3255810463043999
  0.5000438557022547  0.0000892445761891  0.3255580408129408
  0.3333345649581857  0.6666670069149589  0.3252734836283361
  0.5000438636215748  0.4999544170849393  0.3255580420887890
  0.8333290322978459  0.1666791385090885  0.3255763772866747
  0.0000043693230849  0.0000020912770500  0.3255618994523122
  0.8333290277381370  0.6666493353887236  0.3255763754495404
  0.9999155923292498  0.4999577006191341  0.3255586704025424
 
  0.00000000E+00  0.00000000E+00  0.00000000E+00
  0.00000000E+00  0.00000000E+00  0.00000000E+00
  0.00000000E+00  0.00000000E+00  0.00000000E+00
  0.00000000E+00  0.00000000E+00  0.00000000E+00
  0.00000000E+00  0.00000000E+00  0.00000000E+00
  0.00000000E+00  0.00000000E+00  0.00000000E+00
  0.00000000E+00  0.00000000E+00  0.00000000E+00
  0.00000000E+00  0.00000000E+00  0.00000000E+00
  0.00000000E+00  0.00000000E+00  0.00000000E+00
  0.00000000E+00  0.00000000E+00  0.00000000E+00
  0.00000000E+00  0.00000000E+00  0.00000000E+00
  0.00000000E+00  0.00000000E+00  0.00000000E+00
  0.00000000E+00  0.00000000E+00  0.00000000E+00
  0.00000000E+00  0.00000000E+00  0.00000000E+00
  0.00000000E+00  0.00000000E+00  0.00000000E+00
  0.00000000E+00  0.00000000E+00  0.00000000E+00
