Graphene-Borophene Hollow 2 with lattice
   1.00000000000000     
     4.3058783076162293    2.4860000000000002    0.0000000000000000
    -4.3058783076162293    2.4860000000000002    0.0000000000000000
     0.0000000000000000    0.0000000000000000   15.0000000000000000
   B    C 
     8     8
Direct
  0.6692325250522847 -0.0001261938082538  0.1670953058305210
  0.3306402811394644 -0.0001261938082537  0.1670953058305210
  0.0001261938082538  0.3307664749477183  0.1670953058305210
  0.0001261938082538  0.6693587188605387  0.1670953058305210
  0.3306402811394644  0.3307664749477183  0.1670953058305210
  0.6692325250522847  0.6693587188605387  0.1670953058305210
  0.6666659999999993  0.3333330000000032  0.1579877686798324
  0.3333330000000032  0.6666659999999993  0.1771449871048513
  0.3333568840328458  0.1666784420164300  0.4033668821424883
  0.5000283206023816  0.0000566412047632  0.4034680702561992
  0.3333326666666636  0.6666663333333389  0.4033917415121848
  0.5000283206023816  0.4999706793976209  0.4034680702561992
  0.8333205579835723  0.1666784420164300  0.4033668821424883
  0.9999996666666675  0.9999993333333350  0.4031988105239342
  0.8333205579835723  0.6666421159671571  0.4033668821424883
 -0.0000576412047608  0.4999706793976209  0.4034680702561992
 
  0.00000000E+00  0.00000000E+00  0.00000000E+00
  0.00000000E+00  0.00000000E+00  0.00000000E+00
  0.00000000E+00  0.00000000E+00  0.00000000E+00
  0.00000000E+00  0.00000000E+00  0.00000000E+00
  0.00000000E+00  0.00000000E+00  0.00000000E+00
  0.00000000E+00  0.00000000E+00  0.00000000E+00
  0.00000000E+00  0.00000000E+00  0.00000000E+00
  0.00000000E+00  0.00000000E+00  0.00000000E+00
  0.00000000E+00  0.00000000E+00  0.00000000E+00
  0.00000000E+00  0.00000000E+00  0.00000000E+00
  0.00000000E+00  0.00000000E+00  0.00000000E+00
  0.00000000E+00  0.00000000E+00  0.00000000E+00
  0.00000000E+00  0.00000000E+00  0.00000000E+00
  0.00000000E+00  0.00000000E+00  0.00000000E+00
  0.00000000E+00  0.00000000E+00  0.00000000E+00
  0.00000000E+00  0.00000000E+00  0.00000000E+00
