Graphene-Borophene Bridge with lattice p
   1.00000000000000     
     4.3197347140767803    2.4940000000000002    0.0000000000000000
    -4.3197347140767803    2.4940000000000002    0.0000000000000000
     0.0000000000000000    0.0000000000000000   15.0000000000000000
   B    C 
     8     8
Direct
  0.6777615699295749 -0.0091311205189862  0.1673861099014606
  0.3408574306102171 -0.0091542517368043  0.1672211300013100
  0.0091311205189862  0.3222374300704278  0.1673861099014606
  0.0091542517368043  0.6591415693897860  0.1672211300013100
  0.3406126275347583  0.3221587577046121  0.1670298523111632
  0.6778402422953901  0.6593863724652438  0.1670298523111632
  0.6755242569892982  0.3244747430107044  0.1548334680927639
  0.3422511978901861  0.6577478021098168  0.1794953820032305
  0.2408941480050255  0.2591358734764006  0.4018274864039822
  0.4075283709914663  0.0925036785044510  0.4018888966805203
  0.2408772287079196  0.7591217712920828  0.4020274947585996
  0.4075186671139140  0.5924803328860885  0.4020117786249316
  0.7408632926964652  0.2591357073035380  0.4018013275710459
  0.9074868136275452  0.0925121863724571  0.4016569316859283
  0.7408631265236015  0.7591048519949769  0.4018274864039822
  0.9074953214955517  0.5924706290085366  0.4018888966805203
 
  0.00000000E+00  0.00000000E+00  0.00000000E+00
  0.00000000E+00  0.00000000E+00  0.00000000E+00
  0.00000000E+00  0.00000000E+00  0.00000000E+00
  0.00000000E+00  0.00000000E+00  0.00000000E+00
  0.00000000E+00  0.00000000E+00  0.00000000E+00
  0.00000000E+00  0.00000000E+00  0.00000000E+00
  0.00000000E+00  0.00000000E+00  0.00000000E+00
  0.00000000E+00  0.00000000E+00  0.00000000E+00
  0.00000000E+00  0.00000000E+00  0.00000000E+00
  0.00000000E+00  0.00000000E+00  0.00000000E+00
  0.00000000E+00  0.00000000E+00  0.00000000E+00
  0.00000000E+00  0.00000000E+00  0.00000000E+00
  0.00000000E+00  0.00000000E+00  0.00000000E+00
  0.00000000E+00  0.00000000E+00  0.00000000E+00
  0.00000000E+00  0.00000000E+00  0.00000000E+00
  0.00000000E+00  0.00000000E+00  0.00000000E+00
