Graphene-Borophene Bridge with lattice p
   1.00000000000000     
     4.3197347140767803    2.4940000000000002    0.0000000000000000
    -4.3197347140767803    2.4940000000000002    0.0000000000000000
     0.0000000000000000    0.0000000000000000   15.0000000000000000
   B    C 
     8     8
Direct
  0.6769252044722407 -0.0076221290187351  0.1672957240992630
  0.3385370107359631 -0.0076580087039603  0.1671005624027102
  0.0076221290187351  0.3230737955277621  0.1672957240992630
  0.0076580087039603  0.6614619892640398  0.1671005624027102
  0.3393164432853113  0.3234697300618827  0.1670699567552624
  0.6765292699381197  0.6606825567146908  0.1670699567552624
  0.6748230263477755  0.3251759736522272  0.1559264308576412
  0.3409167313538504  0.6590822686461523  0.1782909940713048
  0.2423432014344513  0.2580045785042970  0.4018535116105767
  0.4090191239114073  0.0910828484427243  0.4021209617587631
  0.2421489462125737  0.7578500537874286  0.4023558978826024
  0.4088312217932655  0.5911677782067367  0.4020560572130865
  0.7422093576458295  0.2577896423541737  0.4016444419023197
  0.9088694187602379  0.0911295812397647  0.4013780781532671
  0.7419944214957052  0.7576557985655513  0.4018535116105768
  0.9089161515572781  0.5909798760885956  0.4021209617587631
 
  0.00000000E+00  0.00000000E+00  0.00000000E+00
  0.00000000E+00  0.00000000E+00  0.00000000E+00
  0.00000000E+00  0.00000000E+00  0.00000000E+00
  0.00000000E+00  0.00000000E+00  0.00000000E+00
  0.00000000E+00  0.00000000E+00  0.00000000E+00
  0.00000000E+00  0.00000000E+00  0.00000000E+00
  0.00000000E+00  0.00000000E+00  0.00000000E+00
  0.00000000E+00  0.00000000E+00  0.00000000E+00
  0.00000000E+00  0.00000000E+00  0.00000000E+00
  0.00000000E+00  0.00000000E+00  0.00000000E+00
  0.00000000E+00  0.00000000E+00  0.00000000E+00
  0.00000000E+00  0.00000000E+00  0.00000000E+00
  0.00000000E+00  0.00000000E+00  0.00000000E+00
  0.00000000E+00  0.00000000E+00  0.00000000E+00
  0.00000000E+00  0.00000000E+00  0.00000000E+00
  0.00000000E+00  0.00000000E+00  0.00000000E+00
