Graphene-Borophene Top with lattice para
   1.00000000000000     
     4.3119404854427197    2.4895000000000000    0.0000000000000000
    -4.3119404854427197    2.4895000000000000    0.0000000000000000
     0.0000000000000000    0.0000000000000000   15.0000000000000000
   B    C 
     8     8
Direct
  0.6695827128234378  0.0000011432719539  0.1000067614682040
  0.3304174304485186  0.0000011432719539  0.1000067614682040
 -0.0000011432719539  0.3304162871765648  0.1000067614682040
 -0.0000011432719539  0.6695815695514838  0.1000067614682040
  0.3304174304485186  0.3304162871765648  0.1000067614682040
  0.6695827128234378  0.6695815695514838  0.1000067614682040
  0.6666659999999993  0.3333330000000032  0.0992160912437066
  0.3333330000000032  0.6666659999999993  0.1007833307255437
  0.1666586106066765  0.3333182212133575  0.3359931137323700
  0.3333201930686515  0.1666595965343235  0.3359907291795501
  0.1666586106066765  0.8333403893933261  0.3359931137323700
  0.3333330000000032  0.6666659999999993  0.3360051769517204
  0.6666659999999993  0.3333330000000032  0.3360033035340450
  0.8333394034656789  0.1666595965343235  0.3359907291795501
  0.6666807787866451  0.8333403893933261  0.3359931137323700
  0.8333394034656789  0.6666788069313511  0.3359907291795501
 
  0.00000000E+00  0.00000000E+00  0.00000000E+00
  0.00000000E+00  0.00000000E+00  0.00000000E+00
  0.00000000E+00  0.00000000E+00  0.00000000E+00
  0.00000000E+00  0.00000000E+00  0.00000000E+00
  0.00000000E+00  0.00000000E+00  0.00000000E+00
  0.00000000E+00  0.00000000E+00  0.00000000E+00
  0.00000000E+00  0.00000000E+00  0.00000000E+00
  0.00000000E+00  0.00000000E+00  0.00000000E+00
  0.00000000E+00  0.00000000E+00  0.00000000E+00
  0.00000000E+00  0.00000000E+00  0.00000000E+00
  0.00000000E+00  0.00000000E+00  0.00000000E+00
  0.00000000E+00  0.00000000E+00  0.00000000E+00
  0.00000000E+00  0.00000000E+00  0.00000000E+00
  0.00000000E+00  0.00000000E+00  0.00000000E+00
  0.00000000E+00  0.00000000E+00  0.00000000E+00
  0.00000000E+00  0.00000000E+00  0.00000000E+00
