Graphene-BC3 Hollow with lattice paramet
   1.00000000000000     
     4.3214667648843479    2.4949999999999997    0.0000000000000000
    -4.3214667648843479    2.4949999999999997    0.0000000000000000
     0.0000000000000000    0.0000000000000000   15.0000000000000000
   B    C 
     2    14
Direct
  0.3382381568717593  0.6691200798213752  0.1006263514300916
  0.6715697749716694  0.3357884358557905  0.1002968428519222
  0.1648775198839443  0.3223719167532592  0.1003407401111063
  0.3247629333245271  0.1623745719717744  0.1003542430332799
  0.1648710209163860  0.8424922875676407  0.1003412334142106
  0.8449872410627854  0.1623752529630858  0.1003044399717031
  0.6849863604297405  0.8424871277292632  0.1002922333219750
  0.8449861643251575  0.6826008771552323  0.1003040791125315
  0.3334371310708853  0.1667222101136664  0.3252321763858038
  0.5001288408197211  0.0001264735033116  0.3252008989969374
  0.3334174906978633  0.6667123269602047  0.3249159659300549
  0.5001287793645102  0.5000076616816750  0.3252008746560952
  0.8334122750325059  0.1667231916055541  0.3252269234676526
  0.0000937862963224  0.0000496001820072  0.3252014641698757
  0.8334121893651433  0.6666961867472899  0.3252269160867348
  0.0000156689004137  0.5000104660555633  0.3252012837266973
 
  0.00000000E+00  0.00000000E+00  0.00000000E+00
  0.00000000E+00  0.00000000E+00  0.00000000E+00
  0.00000000E+00  0.00000000E+00  0.00000000E+00
  0.00000000E+00  0.00000000E+00  0.00000000E+00
  0.00000000E+00  0.00000000E+00  0.00000000E+00
  0.00000000E+00  0.00000000E+00  0.00000000E+00
  0.00000000E+00  0.00000000E+00  0.00000000E+00
  0.00000000E+00  0.00000000E+00  0.00000000E+00
  0.00000000E+00  0.00000000E+00  0.00000000E+00
  0.00000000E+00  0.00000000E+00  0.00000000E+00
  0.00000000E+00  0.00000000E+00  0.00000000E+00
  0.00000000E+00  0.00000000E+00  0.00000000E+00
  0.00000000E+00  0.00000000E+00  0.00000000E+00
  0.00000000E+00  0.00000000E+00  0.00000000E+00
  0.00000000E+00  0.00000000E+00  0.00000000E+00
  0.00000000E+00  0.00000000E+00  0.00000000E+00
