Graphene-Borophene Bridge with lattice p
   1.00000000000000     
     4.3162706124616408    2.4919999999999995    0.0000000000000000
    -4.3162706124616408    2.4919999999999995    0.0000000000000000
     0.0000000000000000    0.0000000000000000   15.0000000000000000
   B    C 
     8     8
Direct
  0.6735453810040966 -0.0050271871661018  0.1683600528860386
  0.3365718304294961 -0.0050524250203425  0.1674378168308997
  0.0050271871661018  0.3264536189959060  0.1683600528860386
  0.0050524250203424  0.6634271695705070  0.1674378168308998
  0.3362023447935248  0.3263506680436363  0.1666779368500377
  0.6736483319563659  0.6637966552064780  0.1666779368500377
  0.6712502648494525  0.3287487351505503  0.1551413076119173
  0.3380254653641255  0.6619735346358772  0.1808017615786018
  0.2450524891608572  0.2548674300077915  0.4014315362951489
  0.4117486662688458  0.0883234949511656  0.4014620866375399
  0.2450977623012146  0.7549012376987880  0.4015444278168445
  0.4117794252818682  0.5882195747181341  0.4015798363095251
  0.7450993548757419  0.2548996451242611  0.4014168060980748
  0.9117516631536228  0.0882473368463800  0.4013103349190783
  0.7451315699922110  0.7549465108391450  0.4014315362951489
  0.9116755050488371  0.5882503337311561  0.4014620866375399
 
  0.00000000E+00  0.00000000E+00  0.00000000E+00
  0.00000000E+00  0.00000000E+00  0.00000000E+00
  0.00000000E+00  0.00000000E+00  0.00000000E+00
  0.00000000E+00  0.00000000E+00  0.00000000E+00
  0.00000000E+00  0.00000000E+00  0.00000000E+00
  0.00000000E+00  0.00000000E+00  0.00000000E+00
  0.00000000E+00  0.00000000E+00  0.00000000E+00
  0.00000000E+00  0.00000000E+00  0.00000000E+00
  0.00000000E+00  0.00000000E+00  0.00000000E+00
  0.00000000E+00  0.00000000E+00  0.00000000E+00
  0.00000000E+00  0.00000000E+00  0.00000000E+00
  0.00000000E+00  0.00000000E+00  0.00000000E+00
  0.00000000E+00  0.00000000E+00  0.00000000E+00
  0.00000000E+00  0.00000000E+00  0.00000000E+00
  0.00000000E+00  0.00000000E+00  0.00000000E+00
  0.00000000E+00  0.00000000E+00  0.00000000E+00
