Graphene-Borophene Bridge with lattice p
   1.00000000000000     
     4.3387872729600367    2.5049999999999999    0.0000000000000000
    -4.3387872729600367    2.5049999999999999    0.0000000000000000
     0.0000000000000000    0.0000000000000000   15.0000000000000000
   B    C 
     8     8
Direct
  0.6696201185517969 -0.0000567749535071  0.1641428066529187
  0.3307139009223414  0.0000441829331237  0.1643393449819684
  0.0000567749535071  0.3303788814482054  0.1641428066529187
 -0.0000441829331237  0.6692850990776612  0.1643393449819684
  0.3307650590507173  0.3306809277135678  0.1643682013344719
  0.6693180722864346  0.6692339409492850  0.1643682013344719
  0.6666307129787884  0.3333682870212140  0.1785010969335898
  0.3332771908348458  0.6667218091651569  0.1649095506901889
  0.2530246021122186  0.2532150062583976  0.4033807932061884
  0.4187362827400001  0.0823488363307178  0.4024629305913349
  0.2503983468282079  0.7496006531717946  0.4018511856872914
  0.4158989543279052  0.5841000456720975  0.4028453338916332
  0.7480788451069172  0.2519201548930853  0.4030898883775499
  0.9157508314952565  0.0842481685047462  0.4039481242193542
  0.7467839937416049  0.7469743978877840  0.4033807932061884
  0.9176501636692848  0.5812627172600024  0.4024629305913349
 
  0.00000000E+00  0.00000000E+00  0.00000000E+00
  0.00000000E+00  0.00000000E+00  0.00000000E+00
  0.00000000E+00  0.00000000E+00  0.00000000E+00
  0.00000000E+00  0.00000000E+00  0.00000000E+00
  0.00000000E+00  0.00000000E+00  0.00000000E+00
  0.00000000E+00  0.00000000E+00  0.00000000E+00
  0.00000000E+00  0.00000000E+00  0.00000000E+00
  0.00000000E+00  0.00000000E+00  0.00000000E+00
  0.00000000E+00  0.00000000E+00  0.00000000E+00
  0.00000000E+00  0.00000000E+00  0.00000000E+00
  0.00000000E+00  0.00000000E+00  0.00000000E+00
  0.00000000E+00  0.00000000E+00  0.00000000E+00
  0.00000000E+00  0.00000000E+00  0.00000000E+00
  0.00000000E+00  0.00000000E+00  0.00000000E+00
  0.00000000E+00  0.00000000E+00  0.00000000E+00
  0.00000000E+00  0.00000000E+00  0.00000000E+00
