Graphene-BC3 Hollow with lattice paramet
   1.00000000000000     
     4.2954860027708150    2.4800000000000000    0.0000000000000000
    -4.2954860027708150    2.4800000000000000    0.0000000000000000
     0.0000000000000000    0.0000000000000000   15.0000000000000000
   B    C 
     2    14
Direct
  0.3342361783949693  0.6670479565284058  0.1014140794615520
  0.6672698517091719  0.3335969787870101  0.1008490736475202
  0.1608465824398015  0.3207141467193997  0.1061502871360764
  0.3206120124360501  0.1602594381362538  0.1121889093574379
  0.1608076586664418  0.8400158260883986  0.1068673728669175
  0.8403798312105961  0.1604533879411924  0.0948546320708751
  0.6804657736435883  0.8402048009431368  0.0898009696585729
  0.8404217591191153  0.6798356033792745  0.0956634000409216
  0.3377500762382621  0.1689228312134660  0.3247591996979239
  0.5043703131403702  0.0022546099509820  0.3246391107393762
  0.3377092136985896  0.6689092879661521  0.3242359361622235
  0.5043773843510547  0.5022109258900992  0.3246423465626825
  0.8376732302639351  0.1688950893511116  0.3245135366769798
  0.0043756795920275  0.0022369133132200  0.3246693765743591
  0.8376697114444426  0.6688728574540074  0.3245236361398506
  0.0043600769849165  0.5022280130045857  0.3244947998734020
 
  0.00000000E+00  0.00000000E+00  0.00000000E+00
  0.00000000E+00  0.00000000E+00  0.00000000E+00
  0.00000000E+00  0.00000000E+00  0.00000000E+00
  0.00000000E+00  0.00000000E+00  0.00000000E+00
  0.00000000E+00  0.00000000E+00  0.00000000E+00
  0.00000000E+00  0.00000000E+00  0.00000000E+00
  0.00000000E+00  0.00000000E+00  0.00000000E+00
  0.00000000E+00  0.00000000E+00  0.00000000E+00
  0.00000000E+00  0.00000000E+00  0.00000000E+00
  0.00000000E+00  0.00000000E+00  0.00000000E+00
  0.00000000E+00  0.00000000E+00  0.00000000E+00
  0.00000000E+00  0.00000000E+00  0.00000000E+00
  0.00000000E+00  0.00000000E+00  0.00000000E+00
  0.00000000E+00  0.00000000E+00  0.00000000E+00
  0.00000000E+00  0.00000000E+00  0.00000000E+00
  0.00000000E+00  0.00000000E+00  0.00000000E+00
