Graphene-Borophene Bridge with lattice p
   1.00000000000000     
     4.3734282891114127    2.5249999999999986    0.0000000000000000
    -4.3734282891114127    2.5249999999999986    0.0000000000000000
     0.0000000000000000    0.0000000000000000   15.0000000000000000
   B    C 
     8     8
Direct
  0.6713619731983368 -0.0026899220012352  0.1664146275714249
  0.3338087019027744 -0.0026801828980571  0.1667281890159660
  0.0026899220012352  0.3286370268016648  0.1664146275714249
  0.0026801828980571  0.6661902980972280  0.1667281890159660
  0.3337116197457608  0.3285797377281015  0.1666205034809070
  0.6714192622719010  0.6662873802542422  0.1666205034809070
  0.6690269414631475  0.3309720585368554  0.1654130763433549
  0.3357668310864407  0.6642321689135622  0.1675221278298593
  0.2474477497025829  0.2525778053870903  0.4024692706655340
  0.4141374500780714  0.0859367048052289  0.4025532821264383
  0.2474488649156124  0.7525501350843905  0.4025510765891192
  0.4141352063677042  0.5858637936322981  0.4025605279212567
  0.7474391742316373  0.2525598257683655  0.4025209206622196
  0.9141022969957550  0.0858967030042474  0.4023938582670230
  0.7474211946129119  0.7525512502974193  0.4024692706655340
  0.9140622951947734  0.5858615499219306  0.4025532821264383
 
  0.00000000E+00  0.00000000E+00  0.00000000E+00
  0.00000000E+00  0.00000000E+00  0.00000000E+00
  0.00000000E+00  0.00000000E+00  0.00000000E+00
  0.00000000E+00  0.00000000E+00  0.00000000E+00
  0.00000000E+00  0.00000000E+00  0.00000000E+00
  0.00000000E+00  0.00000000E+00  0.00000000E+00
  0.00000000E+00  0.00000000E+00  0.00000000E+00
  0.00000000E+00  0.00000000E+00  0.00000000E+00
  0.00000000E+00  0.00000000E+00  0.00000000E+00
  0.00000000E+00  0.00000000E+00  0.00000000E+00
  0.00000000E+00  0.00000000E+00  0.00000000E+00
  0.00000000E+00  0.00000000E+00  0.00000000E+00
  0.00000000E+00  0.00000000E+00  0.00000000E+00
  0.00000000E+00  0.00000000E+00  0.00000000E+00
  0.00000000E+00  0.00000000E+00  0.00000000E+00
  0.00000000E+00  0.00000000E+00  0.00000000E+00
