B4C3 with lattice parameter 4.660       
   1.00000000000000     
     4.0356779999999999    2.3300000000000001    0.0000000000000000
    -4.0356779999999999    2.3300000000000001    0.0000000000000000
     0.0000000000000000    0.0000000000000000   15.0000000000000000
   B    C 
     4     3
Direct
  0.0041646641083842  0.0027179483776971  0.1225028576307672
  0.3564381028362585  0.0028057511164581  0.0969588039700713
  0.0042140838109209  0.3550173661935728  0.0969650189184803
  0.6519306640147938  0.6505563044040161  0.0969324336119322
  0.3281292020487314  0.3267308013545819  0.1001095663404911
  0.6802504272638654  0.0027919736526200  0.1000905850249035
  0.0041708559170431  0.6788178549010552  0.1000867345033657
 
  0.00000000E+00  0.00000000E+00  0.00000000E+00
  0.00000000E+00  0.00000000E+00  0.00000000E+00
  0.00000000E+00  0.00000000E+00  0.00000000E+00
  0.00000000E+00  0.00000000E+00  0.00000000E+00
  0.00000000E+00  0.00000000E+00  0.00000000E+00
  0.00000000E+00  0.00000000E+00  0.00000000E+00
  0.00000000E+00  0.00000000E+00  0.00000000E+00
