Graphene-B4C3 Hollow 2 with lattice para
   1.00000000000000     
     4.1699123192220720    2.4075000000000002    0.0000000000000000
    -4.1699123192220720    2.4075000000000002    0.0000000000000000
     0.0000000000000000    0.0000000000000000   15.0000000000000000
   B    C 
     4    11
Direct
  0.0044307178299317  0.0029366567915061  0.0988615646118235
  0.3595643064391313  0.0029540371702578  0.1015415801137041
  0.0044477396601224  0.3580756897398650  0.1015437635276203
  0.6493317965953113  0.6478367614019188  0.1015479761717868
  0.3283974246624987  0.3269025361781270  0.1011537593243339
  0.6804841435160220  0.0029466872590675  0.1011563180941491
  0.0044426409944082  0.6789907211548256  0.1011573443088725
  0.1664215496610667  0.3331788549884410  0.3380624342394026
  0.3331044523784023  0.1664947207807845  0.3380643075035041
  0.1664618648124456  0.8332044290481313  0.3380670380458898
  0.3331042848400824  0.6665152693403118  0.3379499783770389
  0.6664394765577165  0.3331790539478826  0.3379499834251198
  0.8331289938410510  0.1665361793066466  0.3380662712457210
  0.6664433872746217  0.8331646807893774  0.3380624575663255
  0.8330912209371950  0.6665177221028680  0.3380612234447355
 
  0.00000000E+00  0.00000000E+00  0.00000000E+00
  0.00000000E+00  0.00000000E+00  0.00000000E+00
  0.00000000E+00  0.00000000E+00  0.00000000E+00
  0.00000000E+00  0.00000000E+00  0.00000000E+00
  0.00000000E+00  0.00000000E+00  0.00000000E+00
  0.00000000E+00  0.00000000E+00  0.00000000E+00
  0.00000000E+00  0.00000000E+00  0.00000000E+00
  0.00000000E+00  0.00000000E+00  0.00000000E+00
  0.00000000E+00  0.00000000E+00  0.00000000E+00
  0.00000000E+00  0.00000000E+00  0.00000000E+00
  0.00000000E+00  0.00000000E+00  0.00000000E+00
  0.00000000E+00  0.00000000E+00  0.00000000E+00
  0.00000000E+00  0.00000000E+00  0.00000000E+00
  0.00000000E+00  0.00000000E+00  0.00000000E+00
  0.00000000E+00  0.00000000E+00  0.00000000E+00
