Graphene-Borophene Hollow 2 with lattice
   1.00000000000000     
     4.3344571459411148    2.5024999999999999    0.0000000000000000
    -4.3344571459411148    2.5024999999999999    0.0000000000000000
     0.0000000000000000    0.0000000000000000   15.0000000000000000
   B    C 
     8     8
Direct
  0.6693622911872901 -0.0000377296205402  0.1667650815002866
  0.3305989791921721 -0.0000377296205401  0.1667650815002867
  0.0000377296205401  0.3306367088127121  0.1667650815002866
  0.0000377296205402  0.6694000208078301  0.1667650815002866
  0.3305989791921721  0.3306367088127122  0.1667650815002866
  0.6693622911872902  0.6694000208078301  0.1667650815002866
  0.6666659999999993  0.3333330000000032  0.1641285994292823
  0.3333330000000032  0.6666659999999993  0.1700094636445682
  0.3333407614483651  0.1666703807241897  0.4037417086139753
  0.5000203189116158  0.0000406378232316  0.4038317736383169
  0.3333326666666636  0.6666663333333389  0.4037707120797724
  0.5000203189116158  0.4999786810883868  0.4038317736383168
  0.8333286192758130  0.1666703807241897  0.4037417086139753
  0.9999996666666675  0.9999993333333350  0.4035802890877720
  0.8333286192758130  0.6666582385516373  0.4037417086139753
 -0.0000416378232289  0.4999786810883868  0.4038317736383169
 
  0.00000000E+00  0.00000000E+00  0.00000000E+00
  0.00000000E+00  0.00000000E+00  0.00000000E+00
  0.00000000E+00  0.00000000E+00  0.00000000E+00
  0.00000000E+00  0.00000000E+00  0.00000000E+00
  0.00000000E+00  0.00000000E+00  0.00000000E+00
  0.00000000E+00  0.00000000E+00  0.00000000E+00
  0.00000000E+00  0.00000000E+00  0.00000000E+00
  0.00000000E+00  0.00000000E+00  0.00000000E+00
  0.00000000E+00  0.00000000E+00  0.00000000E+00
  0.00000000E+00  0.00000000E+00  0.00000000E+00
  0.00000000E+00  0.00000000E+00  0.00000000E+00
  0.00000000E+00  0.00000000E+00  0.00000000E+00
  0.00000000E+00  0.00000000E+00  0.00000000E+00
  0.00000000E+00  0.00000000E+00  0.00000000E+00
  0.00000000E+00  0.00000000E+00  0.00000000E+00
  0.00000000E+00  0.00000000E+00  0.00000000E+00
