Graphene-Borophene Top with lattice para
   1.00000000000000     
     4.2911558757518931    2.4775000000000000    0.0000000000000000
    -4.2911558757518931    2.4775000000000000    0.0000000000000000
     0.0000000000000000    0.0000000000000000   15.0000000000000000
   B    C 
     8     8
Direct
  0.6687160905450246  0.0000303217989828  0.1674703942697607
  0.3313132312539608  0.0000303217989828  0.1674703942697607
 -0.0000303217989828  0.3312829094549779  0.1674703942697607
 -0.0000303217989828  0.6686857687460416  0.1674703942697607
  0.3313132312539608  0.3312829094549779  0.1674703942697607
  0.6687160905450246  0.6686857687460416  0.1674703942697607
  0.6666659999999993  0.3333330000000032  0.1533835660653349
  0.3333330000000032  0.6666659999999993  0.1814813887004399
  0.1666484535056734  0.3332979070113513  0.4003241389972680
  0.3333316195253078  0.1666653097626516  0.4002147201992615
  0.1666484535056733  0.8333505464943287  0.4003241389972680
  0.3333330000000032  0.6666659999999993  0.4003786489207618
  0.6666659999999993  0.3333330000000032  0.4001841197720015
  0.8333336902373505  0.1666653097626516  0.4002147201992615
  0.6667010929886515  0.8333505464943287  0.4003241389972680
  0.8333336902373505  0.6666673804746939  0.4002147201992615
 
  0.00000000E+00  0.00000000E+00  0.00000000E+00
  0.00000000E+00  0.00000000E+00  0.00000000E+00
  0.00000000E+00  0.00000000E+00  0.00000000E+00
  0.00000000E+00  0.00000000E+00  0.00000000E+00
  0.00000000E+00  0.00000000E+00  0.00000000E+00
  0.00000000E+00  0.00000000E+00  0.00000000E+00
  0.00000000E+00  0.00000000E+00  0.00000000E+00
  0.00000000E+00  0.00000000E+00  0.00000000E+00
  0.00000000E+00  0.00000000E+00  0.00000000E+00
  0.00000000E+00  0.00000000E+00  0.00000000E+00
  0.00000000E+00  0.00000000E+00  0.00000000E+00
  0.00000000E+00  0.00000000E+00  0.00000000E+00
  0.00000000E+00  0.00000000E+00  0.00000000E+00
  0.00000000E+00  0.00000000E+00  0.00000000E+00
  0.00000000E+00  0.00000000E+00  0.00000000E+00
  0.00000000E+00  0.00000000E+00  0.00000000E+00
