Graphene-B4C3 Top with lattice parameter
   1.00000000000000     
     4.1993571829507426    2.4245000000000001    0.0000000000000000
    -4.1993571829507426    2.4245000000000001    0.0000000000000000
     0.0000000000000000    0.0000000000000000   15.0000000000000000
   B    C 
     4    11
Direct
  0.0040555432798155  0.0026984687461113  0.1012562079035308
  0.3592346283540520  0.0029754759231250  0.1005348183884918
  0.0037655185762898  0.3575930220752434  0.1005355234023076
  0.6491547680935821  0.6475137607167545  0.1005320513698466
  0.3277406341999057  0.3261077700593321  0.1005466503836215
  0.6806355043112973  0.0029667187258643  0.1005465904875600
  0.0037767255757675  0.6790020344546280  0.1005439050450447
  0.0001417626848179  0.5000672384119569  0.3348802864603905
  0.1667806251449760  0.3334445694161761  0.3349155218189915
  0.0001165425994202  0.0000709359114334  0.3348436668688629
  0.1668241381901178  0.8334079844345641  0.3349193345996532
  0.5001238306651772  0.5001046869836344  0.3348829955696641
  0.6667826816516914  0.3334058016286465  0.3347807696845962
  0.5000844778332170  0.0000460476556067  0.3348786833111150
  0.6667432855065674  0.8333628181902484  0.3349156613730063
 
  0.00000000E+00  0.00000000E+00  0.00000000E+00
  0.00000000E+00  0.00000000E+00  0.00000000E+00
  0.00000000E+00  0.00000000E+00  0.00000000E+00
  0.00000000E+00  0.00000000E+00  0.00000000E+00
  0.00000000E+00  0.00000000E+00  0.00000000E+00
  0.00000000E+00  0.00000000E+00  0.00000000E+00
  0.00000000E+00  0.00000000E+00  0.00000000E+00
  0.00000000E+00  0.00000000E+00  0.00000000E+00
  0.00000000E+00  0.00000000E+00  0.00000000E+00
  0.00000000E+00  0.00000000E+00  0.00000000E+00
  0.00000000E+00  0.00000000E+00  0.00000000E+00
  0.00000000E+00  0.00000000E+00  0.00000000E+00
  0.00000000E+00  0.00000000E+00  0.00000000E+00
  0.00000000E+00  0.00000000E+00  0.00000000E+00
  0.00000000E+00  0.00000000E+00  0.00000000E+00
