Graphene-B4C3 Top with lattice parameter
   1.00000000000000     
     4.1993571829507426    2.4245000000000001    0.0000000000000000
    -4.1993571829507426    2.4245000000000001    0.0000000000000000
     0.0000000000000000    0.0000000000000000   15.0000000000000000
   B    C 
     4    11
Direct
  0.0040779936305861  0.0027100275679591  0.1012298785403979
  0.3592651629035166  0.0029984643099319  0.1006526505685081
  0.0037844777080309  0.3576068946489731  0.1006533725242104
  0.6491760096113474  0.6475211575223413  0.1006498131261945
  0.3277748668703279  0.3261093108533311  0.1006466021636233
  0.6806752786395988  0.0030053572816770  0.1006449531103423
  0.0037735495511449  0.6790070611926542  0.1006418079103103
  0.0001142998114956  0.5000484273206196  0.3348020384137896
  0.1667621449175071  0.3334403925170917  0.3348391250006201
  0.0000966794687710  0.0000587319332302  0.3347637216985558
  0.1668088023376123  0.8333928405322223  0.3348429907568075
  0.5001092118215277  0.5000904638619482  0.3348049136407150
  0.6667619772012248  0.3333935407722263  0.3347012570505949
  0.5000660174246150  0.0000410172284536  0.3348003428290269
  0.6667141947693886  0.8333436457906650  0.3348391993329856
 
  0.00000000E+00  0.00000000E+00  0.00000000E+00
  0.00000000E+00  0.00000000E+00  0.00000000E+00
  0.00000000E+00  0.00000000E+00  0.00000000E+00
  0.00000000E+00  0.00000000E+00  0.00000000E+00
  0.00000000E+00  0.00000000E+00  0.00000000E+00
  0.00000000E+00  0.00000000E+00  0.00000000E+00
  0.00000000E+00  0.00000000E+00  0.00000000E+00
  0.00000000E+00  0.00000000E+00  0.00000000E+00
  0.00000000E+00  0.00000000E+00  0.00000000E+00
  0.00000000E+00  0.00000000E+00  0.00000000E+00
  0.00000000E+00  0.00000000E+00  0.00000000E+00
  0.00000000E+00  0.00000000E+00  0.00000000E+00
  0.00000000E+00  0.00000000E+00  0.00000000E+00
  0.00000000E+00  0.00000000E+00  0.00000000E+00
  0.00000000E+00  0.00000000E+00  0.00000000E+00
