Graphene-B4C3 Hollow 2 with lattice para
   1.00000000000000     
     4.1976251321431741    2.4235000000000002    0.0000000000000000
    -4.1976251321431741    2.4235000000000002    0.0000000000000000
     0.0000000000000000    0.0000000000000000   15.0000000000000000
   B    C 
     4    11
Direct
  0.0043165736652224  0.0028577801684446  0.0997242010397383
  0.3594854934707229  0.0028788614778558  0.1011856895698958
  0.0043376060372134  0.3580383623589509  0.1011869533262985
  0.6491803137911977  0.6477213069470608  0.1011855555378615
  0.3279836187687674  0.3265332994892181  0.1009473642421753
  0.6806835115820487  0.0028659895745349  0.1009619546096750
  0.0043223264269051  0.6792389847856862  0.1009648392393709
  0.1665161151753848  0.3332424441785422  0.3381620967004080
  0.3332033601641111  0.1665557294068948  0.3381638298962252
  0.1665585078996015  0.8332677651038909  0.3381674649464219
  0.3332072271710024  0.6665803390863865  0.3380508718397455
  0.6665404148978739  0.3332453824983055  0.3380508574466068
  0.8332280651386084  0.1665974501710390  0.3381668263357033
  0.6665426857321377  0.8332278660657109  0.3381643035764352
  0.8331881800792105  0.6665824386874891  0.3381631916934658
 
  0.00000000E+00  0.00000000E+00  0.00000000E+00
  0.00000000E+00  0.00000000E+00  0.00000000E+00
  0.00000000E+00  0.00000000E+00  0.00000000E+00
  0.00000000E+00  0.00000000E+00  0.00000000E+00
  0.00000000E+00  0.00000000E+00  0.00000000E+00
  0.00000000E+00  0.00000000E+00  0.00000000E+00
  0.00000000E+00  0.00000000E+00  0.00000000E+00
  0.00000000E+00  0.00000000E+00  0.00000000E+00
  0.00000000E+00  0.00000000E+00  0.00000000E+00
  0.00000000E+00  0.00000000E+00  0.00000000E+00
  0.00000000E+00  0.00000000E+00  0.00000000E+00
  0.00000000E+00  0.00000000E+00  0.00000000E+00
  0.00000000E+00  0.00000000E+00  0.00000000E+00
  0.00000000E+00  0.00000000E+00  0.00000000E+00
  0.00000000E+00  0.00000000E+00  0.00000000E+00
