Graphene-BC3 Top with lattice parameter 
   1.00000000000000     
     4.3725622637076311    2.5245000000000002    0.0000000000000000
    -4.3725622637076311    2.5245000000000002    0.0000000000000000
     0.0000000000000000    0.0000000000000000   15.0000000000000000
   B    C 
     2    14
Direct
  0.3383346247930040  0.6691673040041010  0.1002330418004444
  0.6716676870000913  0.3358336584719228  0.1002330251114703
  0.1645938559764460  0.3216812793991352  0.0999079955349089
  0.3241846986575295  0.1620924913097959  0.0999070471685592
  0.1645949114985241  0.8429130619106516  0.0999079897326267
  0.8454158425201653  0.1620899300689462  0.0999094595085296
  0.6858290792422672  0.8429135863402055  0.0999100336708449
  0.8454170982386131  0.6833252220980270  0.0999094583177238
  0.1665638041497309  0.3331349415192039  0.3288855434997361
  0.3331322839387912  0.1665659395614009  0.3288866611321190
  0.1665638053860172  0.8334284542048476  0.3288855430297822
  0.3333264547002768  0.6666630264916142  0.3285880508536547
  0.6666598367292366  0.3333297139925642  0.3285880495695789
  0.8334258705977492  0.1665665272454329  0.3288831311091807
  0.6668562807963441  0.8334279358884799  0.3288818391820812
  0.8334258657752327  0.6668589274936805  0.3288831307787794
 
  0.00000000E+00  0.00000000E+00  0.00000000E+00
  0.00000000E+00  0.00000000E+00  0.00000000E+00
  0.00000000E+00  0.00000000E+00  0.00000000E+00
  0.00000000E+00  0.00000000E+00  0.00000000E+00
  0.00000000E+00  0.00000000E+00  0.00000000E+00
  0.00000000E+00  0.00000000E+00  0.00000000E+00
  0.00000000E+00  0.00000000E+00  0.00000000E+00
  0.00000000E+00  0.00000000E+00  0.00000000E+00
  0.00000000E+00  0.00000000E+00  0.00000000E+00
  0.00000000E+00  0.00000000E+00  0.00000000E+00
  0.00000000E+00  0.00000000E+00  0.00000000E+00
  0.00000000E+00  0.00000000E+00  0.00000000E+00
  0.00000000E+00  0.00000000E+00  0.00000000E+00
  0.00000000E+00  0.00000000E+00  0.00000000E+00
  0.00000000E+00  0.00000000E+00  0.00000000E+00
  0.00000000E+00  0.00000000E+00  0.00000000E+00
