Graphene-Borophene Bridge with lattice p
   1.00000000000000     
     4.3067443330200126    2.4864999999999999    0.0000000000000000
    -4.3067443330200126    2.4864999999999999    0.0000000000000000
     0.0000000000000000    0.0000000000000000   15.0000000000000000
   B    C 
     8     8
Direct
  0.6706581986629189 -0.0020037390063402  0.1673093624678431
  0.3332396321316157 -0.0018643162570475  0.1673100750023365
  0.0020037390063402  0.3293408013370837  0.1673093624678431
  0.0018643162570475  0.6667593678683865  0.1673100750023365
  0.3330348509030310  0.3292786784492716  0.1663137537783299
  0.6707203215507309  0.6669641490969714  0.1663137537783299
  0.6682871160970556  0.3317118839029469  0.1545771263740959
  0.3349988211659287  0.6650001788340735  0.1796155066136429
  0.2481291717910936  0.2518712012794735  0.4020686861987133
  0.4148593076342420  0.0851935729390193  0.4020569176961676
  0.2481189719547940  0.7518800280452089  0.4021011820755349
  0.4148640458016221  0.5851349541983799  0.4021637823241780
  0.7481075979914161  0.2518914020085866  0.4020119843456647
  0.9148403499373536  0.0851586500626483  0.4019461613134744
  0.7481277987205295  0.7518698282089091  0.4020686861987133
  0.9148054270609829  0.5851396923657608  0.4020569176961676
 
  0.00000000E+00  0.00000000E+00  0.00000000E+00
  0.00000000E+00  0.00000000E+00  0.00000000E+00
  0.00000000E+00  0.00000000E+00  0.00000000E+00
  0.00000000E+00  0.00000000E+00  0.00000000E+00
  0.00000000E+00  0.00000000E+00  0.00000000E+00
  0.00000000E+00  0.00000000E+00  0.00000000E+00
  0.00000000E+00  0.00000000E+00  0.00000000E+00
  0.00000000E+00  0.00000000E+00  0.00000000E+00
  0.00000000E+00  0.00000000E+00  0.00000000E+00
  0.00000000E+00  0.00000000E+00  0.00000000E+00
  0.00000000E+00  0.00000000E+00  0.00000000E+00
  0.00000000E+00  0.00000000E+00  0.00000000E+00
  0.00000000E+00  0.00000000E+00  0.00000000E+00
  0.00000000E+00  0.00000000E+00  0.00000000E+00
  0.00000000E+00  0.00000000E+00  0.00000000E+00
  0.00000000E+00  0.00000000E+00  0.00000000E+00
