Graphene-Borophene Bridge with lattice p
   1.00000000000000     
     4.3067443330200126    2.4864999999999999    0.0000000000000000
    -4.3067443330200126    2.4864999999999999    0.0000000000000000
     0.0000000000000000    0.0000000000000000   15.0000000000000000
   B    C 
     8     8
Direct
  0.6741848726843803 -0.0054831369851389  0.1682831880137561
  0.3367828296645172 -0.0054309385682971  0.1684872155498467
  0.0054831369851389  0.3258141273156221  0.1682831880137561
  0.0054309385682971  0.6632161703354852  0.1684872155498467
  0.3366092612209789  0.3257863012025513  0.1668688783687914
  0.6742126987974513  0.6633897387790233  0.1668688783687914
  0.6718363893724438  0.3281626106275588  0.1557538782860267
  0.3385376004923346  0.6614613995076675  0.1799541570532628
  0.2446222964619187  0.2553516282711480  0.4012287295337753
  0.4112669360400084  0.0887362826879588  0.4011563255889083
  0.2446131948022056  0.7553858051977973  0.4011964856015597
  0.4113063225147757  0.5886926774852264  0.4013225717731622
  0.7446116465523132  0.2553873534476898  0.4011218167464374
  0.9112514534690407  0.0887475465309615  0.4011357497627674
  0.7446473717288549  0.7553767035380842  0.4012287295337753
  0.9112627173120433  0.5887320639599943  0.4011563255889083
 
  0.00000000E+00  0.00000000E+00  0.00000000E+00
  0.00000000E+00  0.00000000E+00  0.00000000E+00
  0.00000000E+00  0.00000000E+00  0.00000000E+00
  0.00000000E+00  0.00000000E+00  0.00000000E+00
  0.00000000E+00  0.00000000E+00  0.00000000E+00
  0.00000000E+00  0.00000000E+00  0.00000000E+00
  0.00000000E+00  0.00000000E+00  0.00000000E+00
  0.00000000E+00  0.00000000E+00  0.00000000E+00
  0.00000000E+00  0.00000000E+00  0.00000000E+00
  0.00000000E+00  0.00000000E+00  0.00000000E+00
  0.00000000E+00  0.00000000E+00  0.00000000E+00
  0.00000000E+00  0.00000000E+00  0.00000000E+00
  0.00000000E+00  0.00000000E+00  0.00000000E+00
  0.00000000E+00  0.00000000E+00  0.00000000E+00
  0.00000000E+00  0.00000000E+00  0.00000000E+00
  0.00000000E+00  0.00000000E+00  0.00000000E+00
