Graphene-B4C3 Bridge with lattice parame
   1.00000000000000     
     4.1889648781053292    2.4184999999999999    0.0000000000000000
    -4.1889648781053292    2.4184999999999999    0.0000000000000000
     0.0000000000000000    0.0000000000000000   15.0000000000000000
   B    C 
     4    11
Direct
  0.0053302991839098  0.0016678493719739  0.1024424882148777
  0.3604784022885921  0.0016854920524029  0.1011658481356666
  0.0053444345672193  0.3567298187720334  0.1013932112510607
  0.6504083840294621  0.6464650761937374  0.1013292884897573
  0.3292395713784668  0.3253075177444839  0.1012933320113056
  0.6817326394312453  0.0016805955457033  0.1015473329015878
  0.0053807124591707  0.6778685423889549  0.1013647832974665
  0.0822556471739168  0.4176471437742478  0.3368180914590544
  0.2489256444725421  0.2510352314813586  0.3369482568304870
  0.0822978890081556  0.9176926351250373  0.3368769904010399
  0.2489845251240460  0.7510328080457698  0.3368069939104700
  0.5822596847817846  0.4176353775987389  0.3368228183579288
  0.7489080827052929  0.2510116691463569  0.3367916966627727
  0.5822276109145305  0.9176487331346819  0.3369380125479570
  0.7488538058149866  0.7509921762912153  0.3368401888619044
 
  0.00000000E+00  0.00000000E+00  0.00000000E+00
  0.00000000E+00  0.00000000E+00  0.00000000E+00
  0.00000000E+00  0.00000000E+00  0.00000000E+00
  0.00000000E+00  0.00000000E+00  0.00000000E+00
  0.00000000E+00  0.00000000E+00  0.00000000E+00
  0.00000000E+00  0.00000000E+00  0.00000000E+00
  0.00000000E+00  0.00000000E+00  0.00000000E+00
  0.00000000E+00  0.00000000E+00  0.00000000E+00
  0.00000000E+00  0.00000000E+00  0.00000000E+00
  0.00000000E+00  0.00000000E+00  0.00000000E+00
  0.00000000E+00  0.00000000E+00  0.00000000E+00
  0.00000000E+00  0.00000000E+00  0.00000000E+00
  0.00000000E+00  0.00000000E+00  0.00000000E+00
  0.00000000E+00  0.00000000E+00  0.00000000E+00
  0.00000000E+00  0.00000000E+00  0.00000000E+00
