B4C3 with lattice parameter 4.690       
   1.00000000000000     
     4.0616589999999997    2.3450000000000002    0.0000000000000000
    -4.0616589999999997    2.3450000000000002    0.0000000000000000
     0.0000000000000000    0.0000000000000000   15.0000000000000000
   B    C 
     4     3
Direct
  0.0041839312309122  0.0027704019603192  0.1202651684527751
  0.3569552191163012  0.0027819903460653  0.0975034416943927
  0.0041869706702258  0.3555420494042991  0.0975029931107727
  0.6514162295268520  0.6500117132297021  0.0975054549201744
  0.3281007160904608  0.3266940431932497  0.1002827262393211
  0.6802682742395447  0.0027811127310500  0.1002921655125135
  0.0041866591256934  0.6788566891353085  0.1002940500700618
 
  0.00000000E+00  0.00000000E+00  0.00000000E+00
  0.00000000E+00  0.00000000E+00  0.00000000E+00
  0.00000000E+00  0.00000000E+00  0.00000000E+00
  0.00000000E+00  0.00000000E+00  0.00000000E+00
  0.00000000E+00  0.00000000E+00  0.00000000E+00
  0.00000000E+00  0.00000000E+00  0.00000000E+00
  0.00000000E+00  0.00000000E+00  0.00000000E+00
