Graphene-Borophene Hollow 2 with lattice
   1.00000000000000     
     4.3257968919032708    2.4975000000000001    0.0000000000000000
    -4.3257968919032708    2.4975000000000001    0.0000000000000000
     0.0000000000000000    0.0000000000000000   15.0000000000000000
   B    C 
     8     8
Direct
  0.6694356427155935 -0.0000450169099700  0.1668489674017466
  0.3305183403744394 -0.0000450169099701  0.1668489674017466
  0.0000450169099701  0.3305633572844093  0.1668489674017466
  0.0000450169099701  0.6694806596255628  0.1668489674017466
  0.3305183403744394  0.3305633572844093  0.1668489674017466
  0.6694356427155935  0.6694806596255628  0.1668489674017466
  0.6666659999999993  0.3333330000000032  0.1630878115634033
  0.3333330000000032  0.6666659999999993  0.1711053619682850
  0.3333497758337332  0.1666748879168737  0.4036765276209337
  0.5000206303146965  0.0000412606293934  0.4037450951835315
  0.3333326666666636  0.6666663333333389  0.4036845420894966
  0.5000206303146965  0.4999783696853058  0.4037450951835315
  0.8333241120831285  0.1666748879168737  0.4036765276209337
  0.9999996666666675  0.9999993333333350  0.4035636115549306
  0.8333241120831285  0.6666492241662693  0.4036765276209337
 -0.0000422606293908  0.4999783696853058  0.4037450951835315
 
  0.00000000E+00  0.00000000E+00  0.00000000E+00
  0.00000000E+00  0.00000000E+00  0.00000000E+00
  0.00000000E+00  0.00000000E+00  0.00000000E+00
  0.00000000E+00  0.00000000E+00  0.00000000E+00
  0.00000000E+00  0.00000000E+00  0.00000000E+00
  0.00000000E+00  0.00000000E+00  0.00000000E+00
  0.00000000E+00  0.00000000E+00  0.00000000E+00
  0.00000000E+00  0.00000000E+00  0.00000000E+00
  0.00000000E+00  0.00000000E+00  0.00000000E+00
  0.00000000E+00  0.00000000E+00  0.00000000E+00
  0.00000000E+00  0.00000000E+00  0.00000000E+00
  0.00000000E+00  0.00000000E+00  0.00000000E+00
  0.00000000E+00  0.00000000E+00  0.00000000E+00
  0.00000000E+00  0.00000000E+00  0.00000000E+00
  0.00000000E+00  0.00000000E+00  0.00000000E+00
  0.00000000E+00  0.00000000E+00  0.00000000E+00
