Graphene-Borophene Hollow 1 with lattice
   1.00000000000000     
     4.3214667648843470    2.4949999999999992    0.0000000000000000
    -4.3214667648843470    2.4949999999999992    0.0000000000000000
     0.0000000000000000    0.0000000000000000   15.0000000000000000
   B    C 
     8     8
Direct
  0.6721723880496813 -0.0026607106111027  0.1665991512495484
  0.3333548627256002 -0.0027508738868005  0.1667977096826606
  0.0026607106111027  0.3278266119503211  0.1665991512495484
  0.0027508738868005  0.6666441372744023  0.1667977096826606
  0.3330883604707713  0.3276958624051349  0.1666599751418494
  0.6723031375948676  0.6669106395292308  0.1666599751418494
  0.6692269964144680  0.3307720035855344  0.1617206010084485
  0.3360402938144217  0.6639587061855809  0.1716206528062422
  0.2750971019827508  0.2249194253300577  0.4029263421205875
  0.4417206034206661  0.0582609114289089  0.4029051470465231
  0.2750994369748587  0.7248995630251440  0.4029170785019763
  0.4417910366231144  0.5582079633768876  0.4029837511887510
  0.7750628152586739  0.2249361847413291  0.4029250587863102
  0.9416956078201161  0.0583033921798866  0.4028562072259433
  0.7750795746699447  0.7249018980172516  0.4029263421205875
  0.9417380885710935  0.5582783965793361  0.4029051470465231
 
  0.00000000E+00  0.00000000E+00  0.00000000E+00
  0.00000000E+00  0.00000000E+00  0.00000000E+00
  0.00000000E+00  0.00000000E+00  0.00000000E+00
  0.00000000E+00  0.00000000E+00  0.00000000E+00
  0.00000000E+00  0.00000000E+00  0.00000000E+00
  0.00000000E+00  0.00000000E+00  0.00000000E+00
  0.00000000E+00  0.00000000E+00  0.00000000E+00
  0.00000000E+00  0.00000000E+00  0.00000000E+00
  0.00000000E+00  0.00000000E+00  0.00000000E+00
  0.00000000E+00  0.00000000E+00  0.00000000E+00
  0.00000000E+00  0.00000000E+00  0.00000000E+00
  0.00000000E+00  0.00000000E+00  0.00000000E+00
  0.00000000E+00  0.00000000E+00  0.00000000E+00
  0.00000000E+00  0.00000000E+00  0.00000000E+00
  0.00000000E+00  0.00000000E+00  0.00000000E+00
  0.00000000E+00  0.00000000E+00  0.00000000E+00
