Graphene-Borophene Top with lattice para
   1.00000000000000     
     4.2781654946951262    2.4699999999999998    0.0000000000000000
    -4.2781654946951262    2.4699999999999998    0.0000000000000000
     0.0000000000000000    0.0000000000000000   15.0000000000000000
   B    C 
     8     8
Direct
  0.6687594635716549 -0.0000648972820561  0.1680844107301647
  0.3311746391462915 -0.0000648972820561  0.1680844107301647
  0.0000648972820561  0.3312395364283474  0.1680844107301647
  0.0000648972820561  0.6688243608537109  0.1680844107301647
  0.3311746391462915  0.3312395364283474  0.1680844107301647
  0.6687594635716549  0.6688243608537109  0.1680844107301647
  0.6666659999999993  0.3333330000000032  0.1824847109145007
  0.3333330000000032  0.6666659999999993  0.1533939535160695
  0.1666614091269105  0.3333238182538255  0.3996330950762401
  0.3332878022284638  0.1666434011142296  0.3997213180835106
  0.1666614091269105  0.8333375908730917  0.3996330950762401
  0.3333330000000032  0.6666659999999993  0.3996257045175819
  0.6666659999999993  0.3333330000000032  0.3997925938583005
  0.8333555988857732  0.1666434011142296  0.3997213180835106
  0.6666751817461769  0.8333375908730918  0.3996330950762401
  0.8333555988857732  0.6667111977715383  0.3997213180835106
 
  0.00000000E+00  0.00000000E+00  0.00000000E+00
  0.00000000E+00  0.00000000E+00  0.00000000E+00
  0.00000000E+00  0.00000000E+00  0.00000000E+00
  0.00000000E+00  0.00000000E+00  0.00000000E+00
  0.00000000E+00  0.00000000E+00  0.00000000E+00
  0.00000000E+00  0.00000000E+00  0.00000000E+00
  0.00000000E+00  0.00000000E+00  0.00000000E+00
  0.00000000E+00  0.00000000E+00  0.00000000E+00
  0.00000000E+00  0.00000000E+00  0.00000000E+00
  0.00000000E+00  0.00000000E+00  0.00000000E+00
  0.00000000E+00  0.00000000E+00  0.00000000E+00
  0.00000000E+00  0.00000000E+00  0.00000000E+00
  0.00000000E+00  0.00000000E+00  0.00000000E+00
  0.00000000E+00  0.00000000E+00  0.00000000E+00
  0.00000000E+00  0.00000000E+00  0.00000000E+00
  0.00000000E+00  0.00000000E+00  0.00000000E+00
