Graphene-Borophene Top with lattice para
   1.00000000000000     
     4.2824956217140491    2.4725000000000001    0.0000000000000000
    -4.2824956217140491    2.4725000000000001    0.0000000000000000
     0.0000000000000000    0.0000000000000000   15.0000000000000000
   B    C 
     8     8
Direct
  0.6686262738532545 -0.0002831882833547  0.1690012319327795
  0.3310895378633936 -0.0002831882833547  0.1690012319327795
  0.0002831882833547  0.3313727261467480  0.1690012319327795
  0.0002831882833547  0.6689094621366090  0.1690012319327795
  0.3310895378633935  0.3313727261467480  0.1690012319327795
  0.6686262738532545  0.6689094621366088  0.1690012319327795
  0.6666659999999993  0.3333330000000032  0.1818599008252549
  0.3333330000000032  0.6666659999999993  0.1534432028141070
  0.1666896821651564  0.3333803643303174  0.3989786427318820
  0.3333470268531261  0.1666730134265607  0.3991330031814799
  0.1666896821651564  0.8333093178348461  0.3989786427318820
  0.3333330000000032  0.6666659999999993  0.3989250401178926
  0.6666659999999993  0.3333330000000032  0.3992961935726748
  0.8333259865734418  0.1666730134265607  0.3991330031814799
  0.6666186356696852  0.8333093178348461  0.3989786427318820
  0.8333259865734418  0.6666519731468772  0.3991330031814798
 
  0.00000000E+00  0.00000000E+00  0.00000000E+00
  0.00000000E+00  0.00000000E+00  0.00000000E+00
  0.00000000E+00  0.00000000E+00  0.00000000E+00
  0.00000000E+00  0.00000000E+00  0.00000000E+00
  0.00000000E+00  0.00000000E+00  0.00000000E+00
  0.00000000E+00  0.00000000E+00  0.00000000E+00
  0.00000000E+00  0.00000000E+00  0.00000000E+00
  0.00000000E+00  0.00000000E+00  0.00000000E+00
  0.00000000E+00  0.00000000E+00  0.00000000E+00
  0.00000000E+00  0.00000000E+00  0.00000000E+00
  0.00000000E+00  0.00000000E+00  0.00000000E+00
  0.00000000E+00  0.00000000E+00  0.00000000E+00
  0.00000000E+00  0.00000000E+00  0.00000000E+00
  0.00000000E+00  0.00000000E+00  0.00000000E+00
  0.00000000E+00  0.00000000E+00  0.00000000E+00
  0.00000000E+00  0.00000000E+00  0.00000000E+00
