B4C3 with lattice parameter 4.690       
   1.00000000000000     
     4.0418865862195092    2.3335837769078758    0.0000000000000000
    -4.0418862983367889    2.3335832780768455    0.0000000000000000
     0.0000000000000000    0.0000000000000000   15.0000000000000000
  B/a32ced30f5ae  C/253f7b50bb8d
               4               3
Direct
  0.0041856648588457  0.0027770469520591  0.1219491903535372
  0.3566754621085346  0.0027768687407312  0.0969755637521958
  0.0041853590344660  0.3552668607806359  0.0969756083404510
  0.6516956101326427  0.6502869355749402  0.0969756054219299
  0.3273035568814047  0.3258953521344563  0.1002560932272250
  0.6810670152107886  0.0027767511033507  0.1002569971882990
  0.0041853317733081  0.6796581847138206  0.1002569417163735
 
  0.00000000E+00  0.00000000E+00  0.00000000E+00
  0.00000000E+00  0.00000000E+00  0.00000000E+00
  0.00000000E+00  0.00000000E+00  0.00000000E+00
  0.00000000E+00  0.00000000E+00  0.00000000E+00
  0.00000000E+00  0.00000000E+00  0.00000000E+00
  0.00000000E+00  0.00000000E+00  0.00000000E+00
  0.00000000E+00  0.00000000E+00  0.00000000E+00
