Graphene-Borophene Hollow 1 with lattice
   1.00000000000000     
     4.3483135524016658    2.5105000000000000    0.0000000000000000
    -4.3483135524016658    2.5105000000000000    0.0000000000000000
     0.0000000000000000    0.0000000000000000   15.0000000000000000
   B    C 
     8     8
Direct
  0.6695491911525917 -0.0000001598506855  0.1000258038790984
  0.3304498932683141 -0.0000001561564928  0.1000258710264474
  0.0000001598506855  0.3304498088474108  0.1000258038790984
  0.0000001561564928  0.6695491067316884  0.1000258710264474
  0.3304495526649450  0.3304495749189712  0.1000259021462902
  0.6695494250810313  0.6695494473350575  0.1000259021462902
  0.6666661150059572  0.3333328849940454  0.0992551138389188
  0.3333326063160080  0.6666663936839946  0.1008038717124500
  0.2777723703060363  0.2222176146724201  0.4695735411506722
  0.4444419752634612  0.0555571264447267  0.4695729244861073
  0.2777771582179666  0.7222218417820359  0.4695724179195896
  0.4444449485745744  0.5555540514254280  0.4695731502853323
  0.7777804236632920  0.2222185763367104  0.4695733631348409
  0.9444446544847175  0.0555543455152850  0.4695739977316472
  0.7777813853275825  0.7222266296939662  0.4695735411506722
  0.9444418735552758  0.5555570247365413  0.4695729244861073
 
  0.00000000E+00  0.00000000E+00  0.00000000E+00
  0.00000000E+00  0.00000000E+00  0.00000000E+00
  0.00000000E+00  0.00000000E+00  0.00000000E+00
  0.00000000E+00  0.00000000E+00  0.00000000E+00
  0.00000000E+00  0.00000000E+00  0.00000000E+00
  0.00000000E+00  0.00000000E+00  0.00000000E+00
  0.00000000E+00  0.00000000E+00  0.00000000E+00
  0.00000000E+00  0.00000000E+00  0.00000000E+00
  0.00000000E+00  0.00000000E+00  0.00000000E+00
  0.00000000E+00  0.00000000E+00  0.00000000E+00
  0.00000000E+00  0.00000000E+00  0.00000000E+00
  0.00000000E+00  0.00000000E+00  0.00000000E+00
  0.00000000E+00  0.00000000E+00  0.00000000E+00
  0.00000000E+00  0.00000000E+00  0.00000000E+00
  0.00000000E+00  0.00000000E+00  0.00000000E+00
  0.00000000E+00  0.00000000E+00  0.00000000E+00
