Graphene-Borophene Hollow 1 with lattice
   1.00000000000000     
     4.3119404854427197    2.4895000000000000    0.0000000000000000
    -4.3119404854427197    2.4895000000000000    0.0000000000000000
     0.0000000000000000    0.0000000000000000   15.0000000000000000
   B    C 
     8     8
Direct
  0.7059291407460424 -0.0373454003735570  0.1006910755136070
  0.3689496767004580 -0.0373118041624277  0.1007545381774333
  0.0373454003735570  0.2940698592539595  0.1006910755136070
  0.0373118041624277  0.6310493232995454  0.1007545381774333
  0.3689446463005563  0.2941122824770393  0.1005006690225581
  0.7058867175229628  0.6310543536994471  0.1005006690225581
  0.7039996161422156  0.2959993838577869  0.0872424211473935
  0.3706560262836946  0.6293429737163085  0.1136024757230113
  0.2126196118970330  0.2873634496778054  0.3347796277442397
  0.3792945338913286  0.1207237016750233  0.3346976056830728
  0.2126072998222120  0.7873917001777904  0.3347856087469689
  0.3792944917575362  0.6207045082424664  0.3348466422600204
  0.7126236512137176  0.2873753487862850  0.3346615775155382
  0.8792862012057867  0.1207127987942166  0.3346809089919061
  0.7126355503221971  0.7873793881029696  0.3347796277442397
  0.8792752983249792  0.6207044661086739  0.3346976056830728
 
  0.00000000E+00  0.00000000E+00  0.00000000E+00
  0.00000000E+00  0.00000000E+00  0.00000000E+00
  0.00000000E+00  0.00000000E+00  0.00000000E+00
  0.00000000E+00  0.00000000E+00  0.00000000E+00
  0.00000000E+00  0.00000000E+00  0.00000000E+00
  0.00000000E+00  0.00000000E+00  0.00000000E+00
  0.00000000E+00  0.00000000E+00  0.00000000E+00
  0.00000000E+00  0.00000000E+00  0.00000000E+00
  0.00000000E+00  0.00000000E+00  0.00000000E+00
  0.00000000E+00  0.00000000E+00  0.00000000E+00
  0.00000000E+00  0.00000000E+00  0.00000000E+00
  0.00000000E+00  0.00000000E+00  0.00000000E+00
  0.00000000E+00  0.00000000E+00  0.00000000E+00
  0.00000000E+00  0.00000000E+00  0.00000000E+00
  0.00000000E+00  0.00000000E+00  0.00000000E+00
  0.00000000E+00  0.00000000E+00  0.00000000E+00
