Graphene-B4C3 Hollow 2 with lattice para
   1.00000000000000     
     4.1785725732599168    2.4125000000000001    0.0000000000000000
    -4.1785725732599168    2.4125000000000001    0.0000000000000000
     0.0000000000000000    0.0000000000000000   15.0000000000000000
   B    C 
     4    11
Direct
  0.0043780800420004  0.0029048983263238  0.0992465024797129
  0.3595280019600229  0.0029132393385835  0.1013839882913822
  0.0043888456726450  0.3580574954709572  0.1013860819282255
  0.6492411057907082  0.6477656477544919  0.1013900826401297
  0.3282454784334999  0.3267709846718015  0.1010671484441228
  0.6805293812619119  0.0029113454705281  0.1010684363706673
  0.0043867200472531  0.6790564278152873  0.1010691996200212
  0.1664706148405641  0.3332122446239585  0.3381058013262748
  0.3331551638622343  0.1665277688114190  0.3381076178611624
  0.1665083907328724  0.8332345979994298  0.3381101532260253
  0.3331581997817458  0.6665496439398715  0.3379954461188160
  0.6664920245942043  0.3332145727967898  0.3379954468731996
  0.8331767954381062  0.1665649922365993  0.3381094969695809
  0.6664939269108578  0.8331988896156580  0.3381058844248861
  0.8331412706313799  0.6665512511283109  0.3381047134258197
 
  0.00000000E+00  0.00000000E+00  0.00000000E+00
  0.00000000E+00  0.00000000E+00  0.00000000E+00
  0.00000000E+00  0.00000000E+00  0.00000000E+00
  0.00000000E+00  0.00000000E+00  0.00000000E+00
  0.00000000E+00  0.00000000E+00  0.00000000E+00
  0.00000000E+00  0.00000000E+00  0.00000000E+00
  0.00000000E+00  0.00000000E+00  0.00000000E+00
  0.00000000E+00  0.00000000E+00  0.00000000E+00
  0.00000000E+00  0.00000000E+00  0.00000000E+00
  0.00000000E+00  0.00000000E+00  0.00000000E+00
  0.00000000E+00  0.00000000E+00  0.00000000E+00
  0.00000000E+00  0.00000000E+00  0.00000000E+00
  0.00000000E+00  0.00000000E+00  0.00000000E+00
  0.00000000E+00  0.00000000E+00  0.00000000E+00
  0.00000000E+00  0.00000000E+00  0.00000000E+00
