Graphene-Borophene Bridge with lattice p
   1.00000000000000     
     4.3067443330200126    2.4864999999999999    0.0000000000000000
    -4.3067443330200126    2.4864999999999999    0.0000000000000000
     0.0000000000000000    0.0000000000000000   15.0000000000000000
   B    C 
     8     8
Direct
  0.6705605662947961 -0.0018062764672695  0.1672260272988332
  0.3331423460592522 -0.0018033393415145  0.1672165878991230
  0.0018062764672695  0.3294384337052065  0.1672260272988332
  0.0018033393415144  0.6668566539407499  0.1672165878991230
  0.3328352867004727  0.3293335644799115  0.1662390765475469
  0.6706654355200911  0.6671637132995297  0.1662390765475469
  0.6680997354752641  0.3318992645247384  0.1545440545915731
  0.3348911013801949  0.6651078986198072  0.1797344655980797
  0.2482608522704178  0.2517015972355969  0.4021297432544261
  0.4149481132813636  0.0850739766018008  0.4020938637216013
  0.2482583138105687  0.7517406861894342  0.4021365587675514
  0.4149667992293514  0.5850322007706507  0.4022313046116153
  0.7482554581021638  0.2517435418978390  0.4020571147200126
  0.9149436165713745  0.0850553834286274  0.4020192376014784
  0.7482974027644060  0.7517381477295849  0.4021297432544261
  0.9149250233982015  0.5850508867186393  0.4020938637216013
 
  0.00000000E+00  0.00000000E+00  0.00000000E+00
  0.00000000E+00  0.00000000E+00  0.00000000E+00
  0.00000000E+00  0.00000000E+00  0.00000000E+00
  0.00000000E+00  0.00000000E+00  0.00000000E+00
  0.00000000E+00  0.00000000E+00  0.00000000E+00
  0.00000000E+00  0.00000000E+00  0.00000000E+00
  0.00000000E+00  0.00000000E+00  0.00000000E+00
  0.00000000E+00  0.00000000E+00  0.00000000E+00
  0.00000000E+00  0.00000000E+00  0.00000000E+00
  0.00000000E+00  0.00000000E+00  0.00000000E+00
  0.00000000E+00  0.00000000E+00  0.00000000E+00
  0.00000000E+00  0.00000000E+00  0.00000000E+00
  0.00000000E+00  0.00000000E+00  0.00000000E+00
  0.00000000E+00  0.00000000E+00  0.00000000E+00
  0.00000000E+00  0.00000000E+00  0.00000000E+00
  0.00000000E+00  0.00000000E+00  0.00000000E+00
