BC3 with lattice parameter 5.169        
   1.00000000000000     
     4.4764850000000003    2.5844999999999998    0.0000000000000000
    -4.4764850000000003    2.5844999999999998    0.0000000000000000
     0.0000000000000000    0.0000000000000000   15.0000000000000000
   B    C 
     2     6
Direct
  0.3383342252415020  0.6691650850955101  0.2500000000000000
  0.6716662997813689  0.3358318874239070  0.2500000000000000
  0.1637461349878285  0.3199998939023414  0.2500000000000000
  0.3224999077293174  0.1612503202134540  0.2500000000000000
  0.1637542842760881  0.8437488553650676  0.2500000000000000
  0.8462441775226062  0.1612509060184852  0.2500000000000000
  0.6874995904244218  0.8437500619682002  0.2500000000000000
  0.8462513800368692  0.6849989900130339  0.2500000000000000
 
  0.00000000E+00  0.00000000E+00  0.00000000E+00
  0.00000000E+00  0.00000000E+00  0.00000000E+00
  0.00000000E+00  0.00000000E+00  0.00000000E+00
  0.00000000E+00  0.00000000E+00  0.00000000E+00
  0.00000000E+00  0.00000000E+00  0.00000000E+00
  0.00000000E+00  0.00000000E+00  0.00000000E+00
  0.00000000E+00  0.00000000E+00  0.00000000E+00
  0.00000000E+00  0.00000000E+00  0.00000000E+00
