BC3 with lattice parameter 5.169
        1.0
        4.476485    2.584500    0.000000
       -4.476485    2.584500    0.000000
        0.000000    0.000000    15.00000
        B  C
        2  6
        Direct
        0.3383556788790425  0.6691933804436119  0.2500000000000000
        0.6716854984940485  0.3357841194011583  0.2500000000000000
        0.1639341765360518  0.3209612090164141  0.2500000000000000
        0.3234438254853054  0.1619491780981250  0.2500000000000000
        0.1644514154583912  0.8435078271868911  0.2500000000000000
        0.8455567461896502  0.1614769405085851  0.2500000000000000
        0.6865073017608341  0.8430499579333741  0.2500000000000000
        0.8460613571966716  0.6840733874118388  0.2500000000000000 