Graphene-Borophene Top with lattice para
   1.00000000000000     
     4.3119404854427197    2.4895000000000000    0.0000000000000000
    -4.3119404854427197    2.4895000000000000    0.0000000000000000
     0.0000000000000000    0.0000000000000000   15.0000000000000000
   B    C 
     8     8
Direct
  0.6695943728249604 -0.0000114001398083  0.1150530966003578
  0.3303932270352339 -0.0000114001398083  0.1150530966003578
  0.0000114001398083  0.3304046271750422  0.1150530966003578
  0.0000114001398083  0.6696057729647685  0.1150530966003578
  0.3303932270352339  0.3304046271750422  0.1150530966003578
  0.6695943728249604  0.6696057729647685  0.1150530966003578
  0.6666659999999993  0.3333330000000032  0.1142077534476373
  0.3333330000000032  0.6666659999999993  0.1173381098371739
  0.1667059403087019  0.3334128806174084  0.3514473695264280
  0.3334119782185113  0.1667054891092533  0.3513927904849080
  0.1667059403087019  0.8332930596913007  0.3514473695264280
  0.3333330000000032  0.6666659999999993  0.3515406760632380
  0.6666659999999993  0.3333330000000032  0.3514077343491449
  0.8332935108907490  0.1667054891092533  0.3513927904849080
  0.6665861193825944  0.8332930596913007  0.3514473695264280
  0.8332935108907490  0.6665870217814913  0.3513927904849080
 
  0.00000000E+00  0.00000000E+00  0.00000000E+00
  0.00000000E+00  0.00000000E+00  0.00000000E+00
  0.00000000E+00  0.00000000E+00  0.00000000E+00
  0.00000000E+00  0.00000000E+00  0.00000000E+00
  0.00000000E+00  0.00000000E+00  0.00000000E+00
  0.00000000E+00  0.00000000E+00  0.00000000E+00
  0.00000000E+00  0.00000000E+00  0.00000000E+00
  0.00000000E+00  0.00000000E+00  0.00000000E+00
  0.00000000E+00  0.00000000E+00  0.00000000E+00
  0.00000000E+00  0.00000000E+00  0.00000000E+00
  0.00000000E+00  0.00000000E+00  0.00000000E+00
  0.00000000E+00  0.00000000E+00  0.00000000E+00
  0.00000000E+00  0.00000000E+00  0.00000000E+00
  0.00000000E+00  0.00000000E+00  0.00000000E+00
  0.00000000E+00  0.00000000E+00  0.00000000E+00
  0.00000000E+00  0.00000000E+00  0.00000000E+00
