Graphene-B4C3 Hollow_2 with lattice para
   1.00000000000000     
     4.1967591067393899    2.4230000000000000    0.0000000000000000
    -4.1967591067393899    2.4230000000000000    0.0000000000000000
     0.0000000000000000    0.0000000000000000   15.0000000000000000
   B    C 
     4    11
Direct
  0.0345046029043164 -0.0261134210344644  0.1029040901672256
  0.3897157218855420 -0.0257681664644402  0.0996488745770965
  0.0343098356009543  0.3288749808445324  0.0996436787913897
  0.6796435028761474  0.6188661424933171  0.0996496980906871
  0.3582446260025667  0.2974813611289847  0.1000005099716416
  0.7110990262073275 -0.0258338331273211  0.0999757102663259
  0.0342555923462656  0.6502783777589849  0.1000104866667092
  0.0567842435882332  0.4418662965204661  0.3361168695534477
  0.2234288805014064  0.2752198768505957  0.3362139471582980
  0.0567750371461375  0.9418686842577988  0.3361217072973571
  0.2234727702997393  0.7752265207069894  0.3361710023127346
  0.5567984674380492  0.4418957456758549  0.3361474848277257
  0.7234406074062985  0.2752254408959454  0.3360518548089511
  0.5567417912653757  0.9418390785855519  0.3361618227769047
  0.7234126278649612  0.7751735815739021  0.3361615960668181
 
  0.00000000E+00  0.00000000E+00  0.00000000E+00
  0.00000000E+00  0.00000000E+00  0.00000000E+00
  0.00000000E+00  0.00000000E+00  0.00000000E+00
  0.00000000E+00  0.00000000E+00  0.00000000E+00
  0.00000000E+00  0.00000000E+00  0.00000000E+00
  0.00000000E+00  0.00000000E+00  0.00000000E+00
  0.00000000E+00  0.00000000E+00  0.00000000E+00
  0.00000000E+00  0.00000000E+00  0.00000000E+00
  0.00000000E+00  0.00000000E+00  0.00000000E+00
  0.00000000E+00  0.00000000E+00  0.00000000E+00
  0.00000000E+00  0.00000000E+00  0.00000000E+00
  0.00000000E+00  0.00000000E+00  0.00000000E+00
  0.00000000E+00  0.00000000E+00  0.00000000E+00
  0.00000000E+00  0.00000000E+00  0.00000000E+00
  0.00000000E+00  0.00000000E+00  0.00000000E+00
