Graphene-Borophene Top with lattice para
   1.00000000000000     
     4.3344571459411148    2.5024999999999999    0.0000000000000000
    -4.3344571459411148    2.5024999999999999    0.0000000000000000
     0.0000000000000000    0.0000000000000000   15.0000000000000000
   B    C 
     8     8
Direct
  0.6682831120456197  0.0000298688389553  0.1660975080342753
  0.3317457567933373  0.0000298688389553  0.1660975080342753
 -0.0000298688389553  0.3317158879543819  0.1660975080342753
 -0.0000298688389553  0.6682532432066659  0.1660975080342753
  0.3317457567933373  0.3317158879543820  0.1660975080342753
  0.6682831120456199  0.6682532432066659  0.1660975080342753
  0.6666659999999993  0.3333330000000032  0.1785857502129238
  0.3333330000000032  0.6666659999999993  0.1540679242459018
  0.1666734853927594  0.3333479707855234  0.4015467299272707
  0.3332945283641705  0.1666467641820830  0.4016116292726258
  0.1666734853927594  0.8333255146072429  0.4015467299272707
  0.3333330000000032  0.6666659999999993  0.4015215580083931
  0.6666659999999993  0.3333330000000032  0.4016313083941322
  0.8333522358179193  0.1666467641820830  0.4016116292726259
  0.6666510292144789  0.8333255146072429  0.4015467299272707
  0.8333522358179193  0.6667044716358315  0.4016116292726258
 
  0.00000000E+00  0.00000000E+00  0.00000000E+00
  0.00000000E+00  0.00000000E+00  0.00000000E+00
  0.00000000E+00  0.00000000E+00  0.00000000E+00
  0.00000000E+00  0.00000000E+00  0.00000000E+00
  0.00000000E+00  0.00000000E+00  0.00000000E+00
  0.00000000E+00  0.00000000E+00  0.00000000E+00
  0.00000000E+00  0.00000000E+00  0.00000000E+00
  0.00000000E+00  0.00000000E+00  0.00000000E+00
  0.00000000E+00  0.00000000E+00  0.00000000E+00
  0.00000000E+00  0.00000000E+00  0.00000000E+00
  0.00000000E+00  0.00000000E+00  0.00000000E+00
  0.00000000E+00  0.00000000E+00  0.00000000E+00
  0.00000000E+00  0.00000000E+00  0.00000000E+00
  0.00000000E+00  0.00000000E+00  0.00000000E+00
  0.00000000E+00  0.00000000E+00  0.00000000E+00
  0.00000000E+00  0.00000000E+00  0.00000000E+00
