Graphene-B4C3 Top with lattice parameter
   1.00000000000000     
     4.1880988527015450    2.4180000000000001    0.0000000000000000
    -4.1880988527015450    2.4180000000000001    0.0000000000000000
     0.0000000000000000    0.0000000000000000   15.0000000000000000
   B    C 
     4    11
Direct
  0.0041084170578685  0.0027384364577939  0.1025972986236510
  0.3592664428968798  0.0029848501891059  0.1006962254867016
  0.0038124289670687  0.3576208979510407  0.1006969993258146
  0.6492250315804460  0.6475616113108857  0.1006940379673451
  0.3279568909934511  0.3262378525617234  0.1008497940328671
  0.6805914436150475  0.0030553560361786  0.1008619536454064
  0.0037791792577330  0.6788910799687107  0.1008615815274512
  0.0000888518402263  0.5000293488666835  0.3345397747289582
  0.1667313041747793  0.3334255381314322  0.3345737587502712
  0.0000733920750532  0.0000426747835655  0.3344877091483837
  0.1667814356137485  0.8333766211180373  0.3345790489861160
  0.5000892562763106  0.5000749676418302  0.3345426553826479
  0.6667320026240188  0.3333765079589809  0.3344189904491085
  0.5000426183390899  0.0000278105542925  0.3345384792612575
  0.6666819713549729  0.8333237798030647  0.3345743593507022
 
  0.00000000E+00  0.00000000E+00  0.00000000E+00
  0.00000000E+00  0.00000000E+00  0.00000000E+00
  0.00000000E+00  0.00000000E+00  0.00000000E+00
  0.00000000E+00  0.00000000E+00  0.00000000E+00
  0.00000000E+00  0.00000000E+00  0.00000000E+00
  0.00000000E+00  0.00000000E+00  0.00000000E+00
  0.00000000E+00  0.00000000E+00  0.00000000E+00
  0.00000000E+00  0.00000000E+00  0.00000000E+00
  0.00000000E+00  0.00000000E+00  0.00000000E+00
  0.00000000E+00  0.00000000E+00  0.00000000E+00
  0.00000000E+00  0.00000000E+00  0.00000000E+00
  0.00000000E+00  0.00000000E+00  0.00000000E+00
  0.00000000E+00  0.00000000E+00  0.00000000E+00
  0.00000000E+00  0.00000000E+00  0.00000000E+00
  0.00000000E+00  0.00000000E+00  0.00000000E+00
