Graphene-Borophene Hollow 1 with lattice
   1.00000000000000     
     4.3058783076162293    2.4860000000000002    0.0000000000000000
    -4.3058783076162293    2.4860000000000002    0.0000000000000000
     0.0000000000000000    0.0000000000000000   15.0000000000000000
   B    C 
     8     8
Direct
  0.6731741620663607 -0.0045682219451814  0.1673025304958726
  0.3356353269714340 -0.0043394145302555  0.1673357525500924
  0.0045682219451814  0.3268248379336414  0.1673025304958726
  0.0043394145302555  0.6643636730285687  0.1673357525500924
  0.3354236951467199  0.3265555335313320  0.1672408185353912
  0.6734434664686707  0.6645753048532833  0.1672408185353912
  0.6707618506901352  0.3292371493098676  0.1553189813772529
  0.3376488554385975  0.6623501445614047  0.1795720330147045
  0.2735139057631422  0.2265924518468703  0.4021908135093375
  0.4399990114137015  0.0600280028613458  0.4023062843678903
  0.2734825899684059  0.7265164100315963  0.4024067490412245
  0.4400726841084497  0.5599263158915528  0.4024246329550841
  0.7733495555846746  0.2266494444153279  0.4021664315049260
  0.9400916035014144  0.0599073964985887  0.4021587731896503
  0.7734065481531320  0.7264850942368601  0.4021908135093375
  0.9399709971386568  0.5599999885863014  0.4023062843678903
 
  0.00000000E+00  0.00000000E+00  0.00000000E+00
  0.00000000E+00  0.00000000E+00  0.00000000E+00
  0.00000000E+00  0.00000000E+00  0.00000000E+00
  0.00000000E+00  0.00000000E+00  0.00000000E+00
  0.00000000E+00  0.00000000E+00  0.00000000E+00
  0.00000000E+00  0.00000000E+00  0.00000000E+00
  0.00000000E+00  0.00000000E+00  0.00000000E+00
  0.00000000E+00  0.00000000E+00  0.00000000E+00
  0.00000000E+00  0.00000000E+00  0.00000000E+00
  0.00000000E+00  0.00000000E+00  0.00000000E+00
  0.00000000E+00  0.00000000E+00  0.00000000E+00
  0.00000000E+00  0.00000000E+00  0.00000000E+00
  0.00000000E+00  0.00000000E+00  0.00000000E+00
  0.00000000E+00  0.00000000E+00  0.00000000E+00
  0.00000000E+00  0.00000000E+00  0.00000000E+00
  0.00000000E+00  0.00000000E+00  0.00000000E+00
