Graphene-Borophene Hollow 1 with lattice
   1.00000000000000     
     4.3058783076162293    2.4860000000000002    0.0000000000000000
    -4.3058783076162293    2.4860000000000002    0.0000000000000000
     0.0000000000000000    0.0000000000000000   15.0000000000000000
   B    C 
     8     8
Direct
  0.6719773439347279 -0.0033189994924896  0.1673533447580129
  0.3343461354906621 -0.0032732688926341  0.1673397595454797
  0.0033189994924896  0.3280216560652743  0.1673533447580129
  0.0032732688926341  0.6656528645093406  0.1673397595454797
  0.3342025722431513  0.3277896780798851  0.1671628844757596
  0.6722093219201176  0.6657964277568520  0.1671628844757596
  0.6697709405243840  0.3302280594756187  0.1554964153597904
  0.3364649099971347  0.6635340900028674  0.1797321401095411
  0.2746033242572903  0.2254277836460300  0.4021913345160730
  0.4412697563859618  0.0587972738321252  0.4022555057534253
  0.2745884816610230  0.7254105183389791  0.4023267018035259
  0.4412810339035922  0.5587179660964103  0.4023424301015855
  0.7745403456017428  0.2254586543982596  0.4021871297109754
  0.9412625120621709  0.0587364879378322  0.4021095248170908
  0.7745712163539723  0.7253956757427120  0.4021913345160730
  0.9412017261678773  0.5587292436140411  0.4022555057534253
 
  0.00000000E+00  0.00000000E+00  0.00000000E+00
  0.00000000E+00  0.00000000E+00  0.00000000E+00
  0.00000000E+00  0.00000000E+00  0.00000000E+00
  0.00000000E+00  0.00000000E+00  0.00000000E+00
  0.00000000E+00  0.00000000E+00  0.00000000E+00
  0.00000000E+00  0.00000000E+00  0.00000000E+00
  0.00000000E+00  0.00000000E+00  0.00000000E+00
  0.00000000E+00  0.00000000E+00  0.00000000E+00
  0.00000000E+00  0.00000000E+00  0.00000000E+00
  0.00000000E+00  0.00000000E+00  0.00000000E+00
  0.00000000E+00  0.00000000E+00  0.00000000E+00
  0.00000000E+00  0.00000000E+00  0.00000000E+00
  0.00000000E+00  0.00000000E+00  0.00000000E+00
  0.00000000E+00  0.00000000E+00  0.00000000E+00
  0.00000000E+00  0.00000000E+00  0.00000000E+00
  0.00000000E+00  0.00000000E+00  0.00000000E+00
