Graphene-BC3 Top with lattice parameter 
   1.00000000000000     
     4.3595718826508634    2.5169999999999999    0.0000000000000000
    -4.3595718826508634    2.5169999999999999    0.0000000000000000
     0.0000000000000000    0.0000000000000000   15.0000000000000000
   B    C 
     2    14
Direct
  0.3383345968050129  0.6691678171264765  0.1002383704558428
  0.6716673835409303  0.3358339290869148  0.1002383614856463
  0.1646879933266207  0.3218698954319024  0.0999136010957499
  0.3243728109819812  0.1621861256058893  0.0999126530527107
  0.1646892502754006  0.8428187283945384  0.0999136008015377
  0.8453211088086421  0.1621852716401622  0.0999150814968123
  0.6856372848221295  0.8428177513100906  0.0999156530704337
  0.8453228497373572  0.6831347547394074  0.0999150743172118
  0.1665671588194548  0.3331409482521736  0.3288799387535992
  0.3331385931916889  0.1665690400393638  0.3288810497964912
  0.1665671684256814  0.8334259098002995  0.3288799378610632
  0.3333270275658016  0.6666632630633340  0.3285826654284050
  0.6666603463789795  0.3333300251184055  0.3285826631915087
  0.8334236300626534  0.1665695846316607  0.3288775447532425
  0.6668511764166570  0.8334254418957429  0.3288762604063616
  0.8334236208410282  0.6668535138636473  0.3288775440334037
 
  0.00000000E+00  0.00000000E+00  0.00000000E+00
  0.00000000E+00  0.00000000E+00  0.00000000E+00
  0.00000000E+00  0.00000000E+00  0.00000000E+00
  0.00000000E+00  0.00000000E+00  0.00000000E+00
  0.00000000E+00  0.00000000E+00  0.00000000E+00
  0.00000000E+00  0.00000000E+00  0.00000000E+00
  0.00000000E+00  0.00000000E+00  0.00000000E+00
  0.00000000E+00  0.00000000E+00  0.00000000E+00
  0.00000000E+00  0.00000000E+00  0.00000000E+00
  0.00000000E+00  0.00000000E+00  0.00000000E+00
  0.00000000E+00  0.00000000E+00  0.00000000E+00
  0.00000000E+00  0.00000000E+00  0.00000000E+00
  0.00000000E+00  0.00000000E+00  0.00000000E+00
  0.00000000E+00  0.00000000E+00  0.00000000E+00
  0.00000000E+00  0.00000000E+00  0.00000000E+00
  0.00000000E+00  0.00000000E+00  0.00000000E+00
