BC3 with lattice parameter 5.169        
   1.00000000000000     
     4.4764850000000003    2.5844999999999998    0.0000000000000000
    -4.4764850000000003    2.5844999999999998    0.0000000000000000
     0.0000000000000000    0.0000000000000000   15.0000000000000000
   B    C 
     2     6
Direct
  0.3383321988262603  0.6691645239637490  0.2500000000000000
  0.6716635438185179  0.3358352859819774  0.2500000000000000
  0.1637507339295206  0.3199998467261518  0.2500000000000000
  0.3224993856392459  0.1612502452914162  0.2500000000000000
  0.1637550094143856  0.8437493304307795  0.2500000000000000
  0.8462448727678540  0.1612507042944548  0.2500000000000000
  0.6875005272545867  0.8437481135674029  0.2500000000000000
  0.8462497283496313  0.6849979497440675  0.2500000000000000
 
  0.00000000E+00  0.00000000E+00  0.00000000E+00
  0.00000000E+00  0.00000000E+00  0.00000000E+00
  0.00000000E+00  0.00000000E+00  0.00000000E+00
  0.00000000E+00  0.00000000E+00  0.00000000E+00
  0.00000000E+00  0.00000000E+00  0.00000000E+00
  0.00000000E+00  0.00000000E+00  0.00000000E+00
  0.00000000E+00  0.00000000E+00  0.00000000E+00
  0.00000000E+00  0.00000000E+00  0.00000000E+00
