Graphene-BC3 Hollow with lattice paramet
   1.00000000000000     
     4.3656340604773556    2.5205000000000002    0.0000000000000000
    -4.3656340604773556    2.5205000000000002    0.0000000000000000
     0.0000000000000000    0.0000000000000000   15.0000000000000000
   B    C 
     2    14
Direct
  0.3383124086560720  0.6691545101888556  0.1003481781761902
  0.6716500505390359  0.3358243773332310  0.0999858790554658
  0.1646238367343831  0.3217709091746060  0.1000448513843345
  0.3241884088257652  0.1620925233553368  0.1000398761832591
  0.1646204105248786  0.8428484596770096  0.1000448669199478
  0.8453702073022614  0.1620933422291888  0.1000332550918637
  0.6856950696734586  0.8428468619151933  0.1000386211986660
  0.8453682144094389  0.6832781002291664  0.1000331842073174
  0.3333802776285227  0.1666892128811635  0.3255132013643421
  0.5000547379871756  0.0000931867494528  0.3254823036223347
  0.3333569770158594  0.6666775476218169  0.3252187689086883
  0.5000547269575428  0.4999640682823921  0.3254823025689154
  0.8333506571450223  0.1666907297622565  0.3255085655212692
  0.0000170018542008  0.0000097369398855  0.3255014859904939
  0.8333505950749130  0.6666579708582431  0.3255085926213877
  0.9999317530048031  0.4999671294688964  0.3254827338521964
 
  0.00000000E+00  0.00000000E+00  0.00000000E+00
  0.00000000E+00  0.00000000E+00  0.00000000E+00
  0.00000000E+00  0.00000000E+00  0.00000000E+00
  0.00000000E+00  0.00000000E+00  0.00000000E+00
  0.00000000E+00  0.00000000E+00  0.00000000E+00
  0.00000000E+00  0.00000000E+00  0.00000000E+00
  0.00000000E+00  0.00000000E+00  0.00000000E+00
  0.00000000E+00  0.00000000E+00  0.00000000E+00
  0.00000000E+00  0.00000000E+00  0.00000000E+00
  0.00000000E+00  0.00000000E+00  0.00000000E+00
  0.00000000E+00  0.00000000E+00  0.00000000E+00
  0.00000000E+00  0.00000000E+00  0.00000000E+00
  0.00000000E+00  0.00000000E+00  0.00000000E+00
  0.00000000E+00  0.00000000E+00  0.00000000E+00
  0.00000000E+00  0.00000000E+00  0.00000000E+00
  0.00000000E+00  0.00000000E+00  0.00000000E+00
