Graphene-BC3 Top with lattice parameter 
   1.00000000000000     
     4.3734282891114136    2.5249999999999990    0.0000000000000000
    -4.3734282891114136    2.5249999999999990    0.0000000000000000
     0.0000000000000000    0.0000000000000000   15.0000000000000000
   B    C 
     2    14
Direct
  0.3383346363711318  0.6691673106814172  0.1002327923662284
  0.6716677016034115  0.3358336618657233  0.1002327747857262
  0.1645875902178839  0.3216686666757692  0.0999076091406435
  0.3241720906893122  0.1620861853034018  0.0999066615054323
  0.1645886287218567  0.8429193833009838  0.0999076016376562
  0.8454221799751083  0.1620836451772641  0.0999090680205647
  0.6858417492313917  0.8429199264266347  0.0999096410581080
  0.8454234168145106  0.6833378548700771  0.0999090684543900
  0.1665635815202747  0.3331345302994608  0.3288858875086567
  0.3331318598961804  0.1665657271313180  0.3288870063971719
  0.1665635827387106  0.8334286421692159  0.3288858870552297
  0.3333264303866088  0.6666630139487161  0.3285884375786769
  0.6666598124817935  0.3333297015266929  0.3285884360119132
  0.8334260459068553  0.1665663177150829  0.3288834738197965
  0.6668566523115689  0.8334281212291538  0.3288821811918621
  0.8334260411334204  0.6668593116790970  0.3288834734679636
 
  0.00000000E+00  0.00000000E+00  0.00000000E+00
  0.00000000E+00  0.00000000E+00  0.00000000E+00
  0.00000000E+00  0.00000000E+00  0.00000000E+00
  0.00000000E+00  0.00000000E+00  0.00000000E+00
  0.00000000E+00  0.00000000E+00  0.00000000E+00
  0.00000000E+00  0.00000000E+00  0.00000000E+00
  0.00000000E+00  0.00000000E+00  0.00000000E+00
  0.00000000E+00  0.00000000E+00  0.00000000E+00
  0.00000000E+00  0.00000000E+00  0.00000000E+00
  0.00000000E+00  0.00000000E+00  0.00000000E+00
  0.00000000E+00  0.00000000E+00  0.00000000E+00
  0.00000000E+00  0.00000000E+00  0.00000000E+00
  0.00000000E+00  0.00000000E+00  0.00000000E+00
  0.00000000E+00  0.00000000E+00  0.00000000E+00
  0.00000000E+00  0.00000000E+00  0.00000000E+00
  0.00000000E+00  0.00000000E+00  0.00000000E+00
