Graphene-B4C3 Top with lattice parameter
   1.00000000000000     
     4.1941610305280363    2.4215000000000000    0.0000000000000000
    -4.1941610305280363    2.4215000000000000    0.0000000000000000
     0.0000000000000000    0.0000000000000000   15.0000000000000000
   B    C 
     4    11
Direct
  0.0040707567506445  0.0027080407594647  0.1013470800873499
  0.3592776025266656  0.0030028992554553  0.1005870449646091
  0.0037747602829754  0.3576112174425669  0.1005882843663037
  0.6491487264376952  0.6474983838218801  0.1005832542589021
  0.3278059827964406  0.3261689849340623  0.1005996348173043
  0.6805947877338033  0.0029837392407176  0.1006087291624568
  0.0037898409594396  0.6789426228462094  0.1006078191962198
  0.0001241959676511  0.5000574496639998  0.3348274887705581
  0.1667743598736569  0.3334529401472297  0.3348644190082631
  0.0001096175819274  0.0000657932752642  0.3347810375837284
  0.1668112388527185  0.8333884331757940  0.3348692108917442
  0.5001172554612711  0.5000892490741969  0.3348301413877061
  0.6667660364222613  0.3333994506277710  0.3347270479735326
  0.5000848806281830  0.0000497559429176  0.3348263474670735
  0.6667106243913598  0.8333483731257947  0.3348651267309301
 
  0.00000000E+00  0.00000000E+00  0.00000000E+00
  0.00000000E+00  0.00000000E+00  0.00000000E+00
  0.00000000E+00  0.00000000E+00  0.00000000E+00
  0.00000000E+00  0.00000000E+00  0.00000000E+00
  0.00000000E+00  0.00000000E+00  0.00000000E+00
  0.00000000E+00  0.00000000E+00  0.00000000E+00
  0.00000000E+00  0.00000000E+00  0.00000000E+00
  0.00000000E+00  0.00000000E+00  0.00000000E+00
  0.00000000E+00  0.00000000E+00  0.00000000E+00
  0.00000000E+00  0.00000000E+00  0.00000000E+00
  0.00000000E+00  0.00000000E+00  0.00000000E+00
  0.00000000E+00  0.00000000E+00  0.00000000E+00
  0.00000000E+00  0.00000000E+00  0.00000000E+00
  0.00000000E+00  0.00000000E+00  0.00000000E+00
  0.00000000E+00  0.00000000E+00  0.00000000E+00
