Graphene-Borophene Bridge with lattice parameter 4.979 and distance 3.530
        1.0
        4.3119404854427197    2.4895000000000000    0.0000000000000000
       -4.3119404854427197    2.4895000000000000    0.0000000000000000
        0.0000000000000000    0.0000000000000000   15.0000000000000000
        B   C
        8   8
        Direct
        0.6688868879072842  0.0000000000000000  0.1000000000000014
        0.3311121120927183  0.0000000000000000  0.1000000000000014
        0.0000000000000000  0.3311121120927183  0.1000000000000014
        0.0000000000000000  0.6688868879072842  0.1000000000000014
        0.3311121120927183  0.3311121120927183  0.1000000000000014
        0.6688868879072842  0.6688868879072842  0.1000000000000014
        0.6666659999999993  0.3333330000000032  0.0992218869917920
        0.3333330000000032  0.6666659999999993  0.1007781130082108
        0.2499993333333326  0.2499996666666699  0.3353333333333333
        0.4166663333333365  0.0833326666666660  0.3353333333333333
        0.2499993333333326  0.7499996666666698  0.3353333333333333
        0.4166663333333365  0.5833326666666659  0.3353333333333333
        0.7499993333333327  0.2499996666666699  0.3353333333333333
        0.9166663333333366  0.0833326666666660  0.3353333333333333
        0.7499993333333327  0.7499996666666698  0.3353333333333333
        0.9166663333333366  0.5833326666666659  0.3353333333333333