BC3 with lattice parameter 5.169        
   1.00000000000000     
     4.4764850000000003    2.5844999999999998    0.0000000000000000
    -4.4764850000000003    2.5844999999999998    0.0000000000000000
     0.0000000000000000    0.0000000000000000   15.0000000000000000
   B    C 
     2     6
Direct
  0.3383321433679289  0.6691650951007687  0.2500000000000000
  0.6716631346848871  0.3358350347612039  0.2500000000000000
  0.1631196951851265  0.3187605114375897  0.2500000000000000
  0.3212601216277321  0.1606418734020725  0.2500000000000000
  0.1631454565704140  0.8443804781428254  0.2500000000000000
  0.8468546373959310  0.1606193916780458  0.2500000000000000
  0.6887399421006545  0.8443564947684926  0.2500000000000000
  0.8468808690673350  0.6862371207090004  0.2500000000000000
 
  0.00000000E+00  0.00000000E+00  0.00000000E+00
  0.00000000E+00  0.00000000E+00  0.00000000E+00
  0.00000000E+00  0.00000000E+00  0.00000000E+00
  0.00000000E+00  0.00000000E+00  0.00000000E+00
  0.00000000E+00  0.00000000E+00  0.00000000E+00
  0.00000000E+00  0.00000000E+00  0.00000000E+00
  0.00000000E+00  0.00000000E+00  0.00000000E+00
  0.00000000E+00  0.00000000E+00  0.00000000E+00
