k-points 2
0
Gamma
2    2    1
0    0    0