Graphene-B4C3 Hollow 1 with lattice para
   1.00000000000000     
     4.2158116656226472    2.4340000000000002    0.0000000000000000
    -4.2158116656226472    2.4340000000000002    0.0000000000000000
     0.0000000000000000    0.0000000000000000   15.0000000000000000
   B    C 
     4    11
Direct
  0.0533923365147319 -0.0411849555532912  0.0995268544935961
  0.4084744808769573 -0.0407811737785634  0.1009177692590886
  0.0531710520746846  0.3137034855721579  0.1011104418005344
  0.6986675250941731  0.6039555235143672  0.1010631745888387
  0.3770054283528260  0.2822796056725662  0.1006759947816551
  0.7301887483760119 -0.0408630391539150  0.1009787734938402
  0.0530853114668020  0.6352989146967061  0.1006929634106832
  0.0680381972283862  0.4272725799544246  0.3383103146337605
  0.2346956429083889  0.2606166673399952  0.3384921209349265
  0.0680388856980989  0.9272947259671763  0.3384367761262617
  0.2347435044834154  0.7606073433759166  0.3383008308909020
  0.5680304311547704  0.4272905136522493  0.3383295070688822
  0.7346923619131157  0.2605919954237452  0.3381701023765314
  0.5679842680488562  0.9272491403918292  0.3383855215280718
  0.7346413813643309  0.7605471173691029  0.3383881879457490
 
  0.00000000E+00  0.00000000E+00  0.00000000E+00
  0.00000000E+00  0.00000000E+00  0.00000000E+00
  0.00000000E+00  0.00000000E+00  0.00000000E+00
  0.00000000E+00  0.00000000E+00  0.00000000E+00
  0.00000000E+00  0.00000000E+00  0.00000000E+00
  0.00000000E+00  0.00000000E+00  0.00000000E+00
  0.00000000E+00  0.00000000E+00  0.00000000E+00
  0.00000000E+00  0.00000000E+00  0.00000000E+00
  0.00000000E+00  0.00000000E+00  0.00000000E+00
  0.00000000E+00  0.00000000E+00  0.00000000E+00
  0.00000000E+00  0.00000000E+00  0.00000000E+00
  0.00000000E+00  0.00000000E+00  0.00000000E+00
  0.00000000E+00  0.00000000E+00  0.00000000E+00
  0.00000000E+00  0.00000000E+00  0.00000000E+00
  0.00000000E+00  0.00000000E+00  0.00000000E+00
