Graphene-Borophene Hollow 1 with lattice
   1.00000000000000     
     4.3162706124616408    2.4919999999999995    0.0000000000000000
    -4.3162706124616408    2.4919999999999995    0.0000000000000000
     0.0000000000000000    0.0000000000000000   15.0000000000000000
   B    C 
     8     8
Direct
  0.6697370069660536 -0.0000088983953028  0.1095836839788560
  0.3303059800349720  0.0000132610133178  0.1096028977766358
  0.0000088983953028  0.3302619930339488  0.1095836839788560
 -0.0000132610133178  0.6696930199650304  0.1096028977766358
  0.3303228854160092  0.3303176649532281  0.1096126594940855
  0.6696813350467744  0.6696761145839932  0.1096126594940855
  0.6666586791877886  0.3333403208122139  0.1089469378932262
  0.3333256749422562  0.6666733250577465  0.1121325524807417
  0.2790374804585571  0.2236492765926953  0.4598523330771619
  0.4452191441732207  0.0547356685614855  0.4596776768314021
  0.2776039941065571  0.7223950058934455  0.4595483856782900
  0.4443307597664906  0.5556682402335119  0.4597387091780325
  0.7766213084126604  0.2233776915873421  0.4598025360795617
  0.9444289481497823  0.0555700518502201  0.4599723763738749
  0.7763497234073070  0.7209615195414453  0.4598523330771619
  0.9452633314385172  0.5547798558267818  0.4596776768314021
 
  0.00000000E+00  0.00000000E+00  0.00000000E+00
  0.00000000E+00  0.00000000E+00  0.00000000E+00
  0.00000000E+00  0.00000000E+00  0.00000000E+00
  0.00000000E+00  0.00000000E+00  0.00000000E+00
  0.00000000E+00  0.00000000E+00  0.00000000E+00
  0.00000000E+00  0.00000000E+00  0.00000000E+00
  0.00000000E+00  0.00000000E+00  0.00000000E+00
  0.00000000E+00  0.00000000E+00  0.00000000E+00
  0.00000000E+00  0.00000000E+00  0.00000000E+00
  0.00000000E+00  0.00000000E+00  0.00000000E+00
  0.00000000E+00  0.00000000E+00  0.00000000E+00
  0.00000000E+00  0.00000000E+00  0.00000000E+00
  0.00000000E+00  0.00000000E+00  0.00000000E+00
  0.00000000E+00  0.00000000E+00  0.00000000E+00
  0.00000000E+00  0.00000000E+00  0.00000000E+00
  0.00000000E+00  0.00000000E+00  0.00000000E+00
