Graphene-Borophene Hollow 1 with lattice
   1.00000000000000     
     4.3162706124616408    2.4919999999999995    0.0000000000000000
    -4.3162706124616408    2.4919999999999995    0.0000000000000000
     0.0000000000000000    0.0000000000000000   15.0000000000000000
   B    C 
     8     8
Direct
  0.6698016449030629 -0.0000994578706620  0.1581554520158909
  0.3303553325673703 -0.0000015166343011  0.1582703802461470
  0.0000994578706620  0.3301973550969396  0.1581554520158909
  0.0000015166343011  0.6696436674326322  0.1582703802461470
  0.3304344752737383  0.3304498563478048  0.1583282038953258
  0.6695491436521978  0.6695645247262642  0.1583282038953258
  0.6666495940140721  0.3333494059859305  0.1581516294792010
  0.3332891150890096  0.6667098849109930  0.1695757125575160
  0.2810600291551347  0.2250971996034442  0.4104321222826761
  0.4457785259326582  0.0540992998855639  0.4094569539859589
  0.2778037853017672  0.7221952146982353  0.4087404413148016
  0.4437478004794777  0.5562511995205248  0.4097928730903407
  0.7755235472038953  0.2244754527961073  0.4101550450569231
  0.9439864203005875  0.0560125796994148  0.4110980736492301
  0.7749018003965582  0.7189389708448677  0.4104321222826761
  0.9458997001144387  0.5542204740673443  0.4094569539859589
 
  0.00000000E+00  0.00000000E+00  0.00000000E+00
  0.00000000E+00  0.00000000E+00  0.00000000E+00
  0.00000000E+00  0.00000000E+00  0.00000000E+00
  0.00000000E+00  0.00000000E+00  0.00000000E+00
  0.00000000E+00  0.00000000E+00  0.00000000E+00
  0.00000000E+00  0.00000000E+00  0.00000000E+00
  0.00000000E+00  0.00000000E+00  0.00000000E+00
  0.00000000E+00  0.00000000E+00  0.00000000E+00
  0.00000000E+00  0.00000000E+00  0.00000000E+00
  0.00000000E+00  0.00000000E+00  0.00000000E+00
  0.00000000E+00  0.00000000E+00  0.00000000E+00
  0.00000000E+00  0.00000000E+00  0.00000000E+00
  0.00000000E+00  0.00000000E+00  0.00000000E+00
  0.00000000E+00  0.00000000E+00  0.00000000E+00
  0.00000000E+00  0.00000000E+00  0.00000000E+00
  0.00000000E+00  0.00000000E+00  0.00000000E+00
