Graphene-Borophene Hollow 2 with lattice
   1.00000000000000     
     4.2435244785437494    2.4500000000000002    0.0000000000000000
    -4.2435244785437494    2.4500000000000002    0.0000000000000000
     0.0000000000000000    0.0000000000000000   15.0000000000000000
   B    C 
     8     8
Direct
  0.6703168529810346 -0.0000766987303104  0.1649755998871737
  0.3296054482886576 -0.0000766987303104  0.1649755998871737
  0.0000766987303104  0.3296821470189679  0.1649755998871737
  0.0000766987303104  0.6703935517113454  0.1649755998871737
  0.3296054482886576  0.3296821470189678  0.1649755998871737
  0.6703168529810346  0.6703935517113454  0.1649755998871737
  0.6666659999999993  0.3333330000000032  0.1534881060756428
  0.3333330000000032  0.6666659999999993  0.1768281491405396
  0.3330601809857634  0.1665300904928888  0.4054521408337466
  0.5001660379504341  0.0003320759008679  0.4057486146204861
  0.3333326666666636  0.6666663333333389  0.4048497755602641
  0.5001660379504341  0.4998329620495686  0.4057486146204861
  0.8334689095071142  0.1665300904928888  0.4054521408337466
  0.9999996666666675  0.9999993333333350  0.4061781035378049
  0.8334689095071141  0.6669388190142395  0.4054521408337466
 -0.0003330759008654  0.4998329620495686  0.4057486146204861
 
  0.00000000E+00  0.00000000E+00  0.00000000E+00
  0.00000000E+00  0.00000000E+00  0.00000000E+00
  0.00000000E+00  0.00000000E+00  0.00000000E+00
  0.00000000E+00  0.00000000E+00  0.00000000E+00
  0.00000000E+00  0.00000000E+00  0.00000000E+00
  0.00000000E+00  0.00000000E+00  0.00000000E+00
  0.00000000E+00  0.00000000E+00  0.00000000E+00
  0.00000000E+00  0.00000000E+00  0.00000000E+00
  0.00000000E+00  0.00000000E+00  0.00000000E+00
  0.00000000E+00  0.00000000E+00  0.00000000E+00
  0.00000000E+00  0.00000000E+00  0.00000000E+00
  0.00000000E+00  0.00000000E+00  0.00000000E+00
  0.00000000E+00  0.00000000E+00  0.00000000E+00
  0.00000000E+00  0.00000000E+00  0.00000000E+00
  0.00000000E+00  0.00000000E+00  0.00000000E+00
  0.00000000E+00  0.00000000E+00  0.00000000E+00
