Graphene-B4C3 Hollow 2 with lattice para
   1.00000000000000     
     4.1396014300896162    2.3899999999999997    0.0000000000000000
    -4.1396014300896162    2.3899999999999997    0.0000000000000000
     0.0000000000000000    0.0000000000000000   15.0000000000000000
   B    C 
     4    11
Direct
  0.0046564461401336  0.0030898647240968  0.1050803410397639
  0.3596637562411436  0.0030844342006066  0.1001637725464700
  0.0046477622018782  0.3581207031262160  0.1001662533791662
  0.6495852181633338  0.6480210573705163  0.1001763759082897
  0.3288254662457620  0.3272620119610060  0.1007038296481816
  0.6804582308777248  0.0030773243490790  0.1007160318569631
  0.0046437263457584  0.6789018909637544  0.1007183774370278
  0.1662572557393844  0.3330575484383362  0.3379714013766700
  0.3329250574279871  0.1663875852511906  0.3379732019295502
  0.1662779535809187  0.8330858856062201  0.3379759367700843
  0.3329287631127705  0.6663983489489510  0.3378425662933025
  0.6662629282392013  0.3330630311024201  0.3378423929026387
  0.8329527782239197  0.1664118032276654  0.3379750282127743
  0.6662774089911475  0.8330610007244329  0.3379707793665294
  0.8329312484689428  0.6664115100055187  0.3379697113326158
 
  0.00000000E+00  0.00000000E+00  0.00000000E+00
  0.00000000E+00  0.00000000E+00  0.00000000E+00
  0.00000000E+00  0.00000000E+00  0.00000000E+00
  0.00000000E+00  0.00000000E+00  0.00000000E+00
  0.00000000E+00  0.00000000E+00  0.00000000E+00
  0.00000000E+00  0.00000000E+00  0.00000000E+00
  0.00000000E+00  0.00000000E+00  0.00000000E+00
  0.00000000E+00  0.00000000E+00  0.00000000E+00
  0.00000000E+00  0.00000000E+00  0.00000000E+00
  0.00000000E+00  0.00000000E+00  0.00000000E+00
  0.00000000E+00  0.00000000E+00  0.00000000E+00
  0.00000000E+00  0.00000000E+00  0.00000000E+00
  0.00000000E+00  0.00000000E+00  0.00000000E+00
  0.00000000E+00  0.00000000E+00  0.00000000E+00
  0.00000000E+00  0.00000000E+00  0.00000000E+00
