k-points 19
0
Gamma
19    19    1
0    0    0