Graphene-B4C3 Top with lattice parameter
   1.00000000000000     
     4.1917503083606933    2.4196253277897415    0.0058381134804998
    -4.1922556271828242    2.4205011263562781    0.0009919253135981
     0.0090555837242179    0.0235580604546388    7.5482917558959644
   B    C 
     4    11
Direct
  0.0020920204158372  0.0013876419353633  0.0148280827047939
  0.3593441608991340  0.0048949581241948 -0.0106760049111713
 -0.0004365170787894  0.3555492356670818 -0.0106806904082091
  0.6486197304024602  0.6449830446881841 -0.0105003583939023
  0.3273151075454703  0.3235266998108128 -0.0085524669929021
  0.6807455696483696  0.0050173475825898 -0.0076051368080565
 -0.0004688201124229  0.6768759562752004 -0.0073785950890172
 -0.0000638206534896  0.5003499797264166  0.4278140257704255
  0.1687414214849075  0.3343926678845566  0.4283730820459602
  0.0010036010496357  0.0007829641975268  0.4259040387050252
  0.1687130878218940  0.8343029434633393  0.4285730406258186
  0.5014709818421517  0.5001751744864650  0.4277545604232892
  0.6686570024495208  0.3343081696096759  0.4261194855817980
  0.5016050496661690  0.0018658955488789  0.4278718648638067
  0.6686220912858450  0.8343546543330388  0.4284677385490318
 
  0.00000000E+00  0.00000000E+00  0.00000000E+00
  0.00000000E+00  0.00000000E+00  0.00000000E+00
  0.00000000E+00  0.00000000E+00  0.00000000E+00
  0.00000000E+00  0.00000000E+00  0.00000000E+00
  0.00000000E+00  0.00000000E+00  0.00000000E+00
  0.00000000E+00  0.00000000E+00  0.00000000E+00
  0.00000000E+00  0.00000000E+00  0.00000000E+00
  0.00000000E+00  0.00000000E+00  0.00000000E+00
  0.00000000E+00  0.00000000E+00  0.00000000E+00
  0.00000000E+00  0.00000000E+00  0.00000000E+00
  0.00000000E+00  0.00000000E+00  0.00000000E+00
  0.00000000E+00  0.00000000E+00  0.00000000E+00
  0.00000000E+00  0.00000000E+00  0.00000000E+00
  0.00000000E+00  0.00000000E+00  0.00000000E+00
  0.00000000E+00  0.00000000E+00  0.00000000E+00
