Graphene-Borophene Top with lattice para
   1.00000000000000     
     4.3041462568086590    2.4849999999999994    0.0000000000000000
    -4.3041462568086590    2.4849999999999994    0.0000000000000000
     0.0000000000000000    0.0000000000000000   15.0000000000000000
   B    C 
     8     8
Direct
  0.6685997814803896  0.0000282315569956  0.1673399486424744
  0.3314274500766090  0.0000282315569956  0.1673399486424743
 -0.0000282315569956  0.3313992185196132  0.1673399486424744
 -0.0000282315569956  0.6685715499233935  0.1673399486424743
  0.3314274500766090  0.3313992185196132  0.1673399486424744
  0.6685997814803896  0.6685715499233935  0.1673399486424744
  0.6666659999999993  0.3333330000000032  0.1539441487968271
  0.3333330000000032  0.6666659999999993  0.1806369709800727
  0.1666499874479245  0.3333009748958536  0.4004496038047379
  0.3333328296531401  0.1666659148265678  0.4003546059008645
  0.1666499874479245  0.8333490125520783  0.4004496038047379
  0.3333330000000032  0.6666659999999993  0.4004997594102315
  0.6666659999999993  0.3333330000000032  0.4003334665079094
  0.8333330851734346  0.1666659148265678  0.4003546059008645
  0.6666980251041490  0.8333490125520783  0.4004496038047379
  0.8333330851734345  0.6666661703468627  0.4003546059008645
 
  0.00000000E+00  0.00000000E+00  0.00000000E+00
  0.00000000E+00  0.00000000E+00  0.00000000E+00
  0.00000000E+00  0.00000000E+00  0.00000000E+00
  0.00000000E+00  0.00000000E+00  0.00000000E+00
  0.00000000E+00  0.00000000E+00  0.00000000E+00
  0.00000000E+00  0.00000000E+00  0.00000000E+00
  0.00000000E+00  0.00000000E+00  0.00000000E+00
  0.00000000E+00  0.00000000E+00  0.00000000E+00
  0.00000000E+00  0.00000000E+00  0.00000000E+00
  0.00000000E+00  0.00000000E+00  0.00000000E+00
  0.00000000E+00  0.00000000E+00  0.00000000E+00
  0.00000000E+00  0.00000000E+00  0.00000000E+00
  0.00000000E+00  0.00000000E+00  0.00000000E+00
  0.00000000E+00  0.00000000E+00  0.00000000E+00
  0.00000000E+00  0.00000000E+00  0.00000000E+00
  0.00000000E+00  0.00000000E+00  0.00000000E+00
