Graphene-B4C3 Bridge with lattice parame
   1.00000000000000     
     4.2054193607772321    2.4279999999999990    0.0000000000000000
    -4.2054193607772321    2.4279999999999990    0.0000000000000000
     0.0000000000000000    0.0000000000000000   15.0000000000000000
   B    C 
     4    11
Direct
  0.0045277652093808  0.0025415005438797  0.1026186154787315
  0.3596901302790249  0.0023122918639222  0.1011802283563716
  0.0047085166203844  0.3575130417291636  0.1016594057399016
  0.6498384549422058  0.6469950803317659  0.1015227505642464
  0.3285787812206479  0.3260381939714221  0.1014656596466731
  0.6808242053721379  0.0021931878625146  0.1019340195819635
  0.0046777600093293  0.6785995602660903  0.1015864096633830
  0.0828529876542195  0.4170646325002842  0.3366230778444255
  0.2495656455559783  0.2504377518874543  0.3368293911358480
  0.0828723495482279  0.9170570565438161  0.3367273590899175
  0.2495816961710237  0.7503887323823412  0.3365816732546704
  0.5829001487749773  0.4170384204585506  0.3366192616596976
  0.7495415813104356  0.2503496557949678  0.3365705488783580
  0.5829214356533297  0.9171589604195551  0.3367925992872502
  0.7495458750120192  0.7504126001109690  0.3366683331518980
 
  0.00000000E+00  0.00000000E+00  0.00000000E+00
  0.00000000E+00  0.00000000E+00  0.00000000E+00
  0.00000000E+00  0.00000000E+00  0.00000000E+00
  0.00000000E+00  0.00000000E+00  0.00000000E+00
  0.00000000E+00  0.00000000E+00  0.00000000E+00
  0.00000000E+00  0.00000000E+00  0.00000000E+00
  0.00000000E+00  0.00000000E+00  0.00000000E+00
  0.00000000E+00  0.00000000E+00  0.00000000E+00
  0.00000000E+00  0.00000000E+00  0.00000000E+00
  0.00000000E+00  0.00000000E+00  0.00000000E+00
  0.00000000E+00  0.00000000E+00  0.00000000E+00
  0.00000000E+00  0.00000000E+00  0.00000000E+00
  0.00000000E+00  0.00000000E+00  0.00000000E+00
  0.00000000E+00  0.00000000E+00  0.00000000E+00
  0.00000000E+00  0.00000000E+00  0.00000000E+00
