Graphene-B4C3 Bridge with lattice parame
   1.00000000000000     
     4.2054193607772321    2.4279999999999990    0.0000000000000000
    -4.2054193607772321    2.4279999999999990    0.0000000000000000
     0.0000000000000000    0.0000000000000000   15.0000000000000000
   B    C 
     4    11
Direct
  0.0041476777507388  0.0026701792351995  0.1197026664754433
  0.3562938243940353  0.0028432697809815  0.0976596949012448
  0.0041893176353159  0.3549498062281851  0.0976921313473379
  0.6520421666491178  0.6506052667468607  0.0976696767775999
  0.3263487537218410  0.3248654226463727  0.1003034006838394
  0.6822042893904766  0.0028184808302037  0.1003012632752950
  0.0041683734555835  0.6805982480847332  0.1002720951758457
  0.0833248834689070  0.4167220008802237  0.3364652259376643
  0.2500861669418359  0.2501287806211209  0.3365138946445865
  0.0834143442402123  0.9167318155300896  0.3364598391162231
  0.2501485537123693  0.7499785917335385  0.3364519816506105
  0.5833096459492469  0.4166562814422036  0.3364445452596359
  0.7499669380642654  0.2500018178625441  0.3364643214847486
  0.5832119721467957  0.9166405330488886  0.3365019652868592
  0.7497704258125804  0.7498901719955510  0.3364766313164020
 
  0.00000000E+00  0.00000000E+00  0.00000000E+00
  0.00000000E+00  0.00000000E+00  0.00000000E+00
  0.00000000E+00  0.00000000E+00  0.00000000E+00
  0.00000000E+00  0.00000000E+00  0.00000000E+00
  0.00000000E+00  0.00000000E+00  0.00000000E+00
  0.00000000E+00  0.00000000E+00  0.00000000E+00
  0.00000000E+00  0.00000000E+00  0.00000000E+00
  0.00000000E+00  0.00000000E+00  0.00000000E+00
  0.00000000E+00  0.00000000E+00  0.00000000E+00
  0.00000000E+00  0.00000000E+00  0.00000000E+00
  0.00000000E+00  0.00000000E+00  0.00000000E+00
  0.00000000E+00  0.00000000E+00  0.00000000E+00
  0.00000000E+00  0.00000000E+00  0.00000000E+00
  0.00000000E+00  0.00000000E+00  0.00000000E+00
  0.00000000E+00  0.00000000E+00  0.00000000E+00
