Graphene-B4C3 Hollow 1 with lattice para
   1.00000000000000     
     4.1976251321431741    2.4235000000000002    0.0000000000000000
    -4.1976251321431741    2.4235000000000002    0.0000000000000000
     0.0000000000000000    0.0000000000000000   15.0000000000000000
   B    C 
     4    11
Direct
  0.0080343944498751 -0.0006804812775327  0.0987545420107307
  0.3630958276315721 -0.0007489218751812  0.1014673891628172
  0.0080390611341199  0.3542874130518425  0.1015513274886809
  0.6530736613490252  0.6441441031292037  0.1015234224858940
  0.3318607692411183  0.3228694181663873  0.1011055700106753
  0.6845159028886426 -0.0006231381716073  0.1011853151667858
  0.0081446818868677  0.6756907490484739  0.1011332535203283
  0.1076721964896768  0.3919661520974636  0.3381083662922615
  0.2743673040726932  0.2252532759956018  0.3382091310579592
  0.1077336726085600  0.8920330448777587  0.3381533919577549
  0.2744066940616381  0.7252906468409499  0.3380691148236388
  0.6076469756792772  0.3919352387602820  0.3380786722900533
  0.7743395709759938  0.2252805554690064  0.3381141380161076
  0.6076270421489318  0.8919379065545789  0.3382136490792326
  0.7742918009375583  0.7252424817772400  0.3381120499704014
 
  0.00000000E+00  0.00000000E+00  0.00000000E+00
  0.00000000E+00  0.00000000E+00  0.00000000E+00
  0.00000000E+00  0.00000000E+00  0.00000000E+00
  0.00000000E+00  0.00000000E+00  0.00000000E+00
  0.00000000E+00  0.00000000E+00  0.00000000E+00
  0.00000000E+00  0.00000000E+00  0.00000000E+00
  0.00000000E+00  0.00000000E+00  0.00000000E+00
  0.00000000E+00  0.00000000E+00  0.00000000E+00
  0.00000000E+00  0.00000000E+00  0.00000000E+00
  0.00000000E+00  0.00000000E+00  0.00000000E+00
  0.00000000E+00  0.00000000E+00  0.00000000E+00
  0.00000000E+00  0.00000000E+00  0.00000000E+00
  0.00000000E+00  0.00000000E+00  0.00000000E+00
  0.00000000E+00  0.00000000E+00  0.00000000E+00
  0.00000000E+00  0.00000000E+00  0.00000000E+00
