Graphene-BC3 Hollow with lattice paramet
   1.00000000000000     
     4.3682321366887082    2.5219999999999998    0.0000000000000000
    -4.3682321366887082    2.5219999999999998    0.0000000000000000
     0.0000000000000000    0.0000000000000000   15.0000000000000000
   B    C 
     2    14
Direct
  0.3382189105510007  0.6691063047464081  0.1135292278928434
  0.6715551140793390  0.3357749261675329  0.1131968352894668
  0.1644965641789872  0.3216631031972225  0.1131742019150258
  0.3240317731069399  0.1620131171496041  0.1131847790188710
  0.1644969758169951  0.8428285137822987  0.1131761421802352
  0.8453109698755080  0.1620101167145632  0.1131770741350389
  0.6856577240517485  0.8428264684571122  0.1131692485722602
  0.8453102135920312  0.6832930638186308  0.1131790333651793
  0.3334673035036327  0.1667358049483587  0.3380316802804592
  0.5001568951293834  0.0001497093699092  0.3380038399786521
  0.3334451194753917  0.6667246742682551  0.3377055009961464
  0.5001569449116937  0.5000126533304473  0.3380038338374348
  0.8334390383683791  0.1667370322361208  0.3380268027100957
  0.0001162401484055  0.0000609026475805  0.3380106056388724
  0.8334390132978272  0.6667062567505555  0.3380268195590235
  0.0000265332460702  0.5000160190820955  0.3380043746303958
 
  0.00000000E+00  0.00000000E+00  0.00000000E+00
  0.00000000E+00  0.00000000E+00  0.00000000E+00
  0.00000000E+00  0.00000000E+00  0.00000000E+00
  0.00000000E+00  0.00000000E+00  0.00000000E+00
  0.00000000E+00  0.00000000E+00  0.00000000E+00
  0.00000000E+00  0.00000000E+00  0.00000000E+00
  0.00000000E+00  0.00000000E+00  0.00000000E+00
  0.00000000E+00  0.00000000E+00  0.00000000E+00
  0.00000000E+00  0.00000000E+00  0.00000000E+00
  0.00000000E+00  0.00000000E+00  0.00000000E+00
  0.00000000E+00  0.00000000E+00  0.00000000E+00
  0.00000000E+00  0.00000000E+00  0.00000000E+00
  0.00000000E+00  0.00000000E+00  0.00000000E+00
  0.00000000E+00  0.00000000E+00  0.00000000E+00
  0.00000000E+00  0.00000000E+00  0.00000000E+00
  0.00000000E+00  0.00000000E+00  0.00000000E+00
