Graphene-BC3 Hollow with lattice paramet
   1.00000000000000     
     4.3682321366887082    2.5219999999999998    0.0000000000000000
    -4.3682321366887082    2.5219999999999998    0.0000000000000000
     0.0000000000000000    0.0000000000000000   15.0000000000000000
   B    C 
     2    14
Direct
  0.3382315783098829  0.6691101288510735  0.1135684418163711
  0.6715675128635221  0.3357782053645778  0.1132322311863886
  0.1645109311587078  0.3216691068037107  0.1132158936789920
  0.3240458128728015  0.1620180887105404  0.1132249453011250
  0.1645090352438218  0.8428294369245661  0.1132176166247576
  0.8453228464920943  0.1620162864160605  0.1132166859313464
  0.6856675086601632  0.8428279053973278  0.1132101820375789
  0.8453211934378453  0.6832965247326199  0.1132184468236389
  0.3334551456157525  0.1667321832031070  0.3379921940342943
  0.5001451030745161  0.0001467872752884  0.3379650324815704
  0.3334326258096541  0.6667209217313573  0.3376643741333287
  0.5001452159203171  0.5000083947104117  0.3379650327824833
  0.8334266186582491  0.1667333580795114  0.3379872420328649
  0.0001041049178154  0.0000571700619722  0.3379687771210324
  0.8334265218525025  0.6667022917149331  0.3379872748772267
  0.0000135784456878  0.5000118766896369  0.3379656291370008
 
  0.00000000E+00  0.00000000E+00  0.00000000E+00
  0.00000000E+00  0.00000000E+00  0.00000000E+00
  0.00000000E+00  0.00000000E+00  0.00000000E+00
  0.00000000E+00  0.00000000E+00  0.00000000E+00
  0.00000000E+00  0.00000000E+00  0.00000000E+00
  0.00000000E+00  0.00000000E+00  0.00000000E+00
  0.00000000E+00  0.00000000E+00  0.00000000E+00
  0.00000000E+00  0.00000000E+00  0.00000000E+00
  0.00000000E+00  0.00000000E+00  0.00000000E+00
  0.00000000E+00  0.00000000E+00  0.00000000E+00
  0.00000000E+00  0.00000000E+00  0.00000000E+00
  0.00000000E+00  0.00000000E+00  0.00000000E+00
  0.00000000E+00  0.00000000E+00  0.00000000E+00
  0.00000000E+00  0.00000000E+00  0.00000000E+00
  0.00000000E+00  0.00000000E+00  0.00000000E+00
  0.00000000E+00  0.00000000E+00  0.00000000E+00
