k-points 49
0
Gamma
49    49    1
0    0    0