Graphene-Borophene Hollow 1 with lattice
   1.00000000000000     
     4.3093424092313661    2.4880000000000000    0.0000000000000000
    -4.3093424092313661    2.4880000000000000    0.0000000000000000
     0.0000000000000000    0.0000000000000000   15.0000000000000000
   B    C 
     8     8
Direct
  0.6791011593110021 -0.0108712490185158  0.1673518371854137
  0.3421060911734699 -0.0104728020799101  0.1666730925124565
  0.0108712490185158  0.3208978406890002  0.1673518371854137
  0.0104728020799101  0.6578929088265328  0.1666730925124565
  0.3419532454249397  0.3206663778147167  0.1673560580873588
  0.6793326221852857  0.6580457545750635  0.1673560580873588
  0.6770722654828939  0.3229267345171089  0.1535040606474936
  0.3437266587280141  0.6562723412719883  0.1813967606885821
  0.2671952486683839  0.2328227272260070  0.4024503050722094
  0.4339266400223785  0.0661826677468652  0.4023838860393329
  0.2671560014273837  0.7328429985726195  0.4023325206631509
  0.4339193234803168  0.5660796765196855  0.4025478545823924
  0.7671636352201351  0.2328353647798675  0.4023243782132859
  0.9338923416391702  0.0661066583608322  0.4022640674115613
  0.7671762727739958  0.7328037513316186  0.4024503050722094
  0.9338163322531374  0.5660723599776246  0.4023838860393329
 
  0.00000000E+00  0.00000000E+00  0.00000000E+00
  0.00000000E+00  0.00000000E+00  0.00000000E+00
  0.00000000E+00  0.00000000E+00  0.00000000E+00
  0.00000000E+00  0.00000000E+00  0.00000000E+00
  0.00000000E+00  0.00000000E+00  0.00000000E+00
  0.00000000E+00  0.00000000E+00  0.00000000E+00
  0.00000000E+00  0.00000000E+00  0.00000000E+00
  0.00000000E+00  0.00000000E+00  0.00000000E+00
  0.00000000E+00  0.00000000E+00  0.00000000E+00
  0.00000000E+00  0.00000000E+00  0.00000000E+00
  0.00000000E+00  0.00000000E+00  0.00000000E+00
  0.00000000E+00  0.00000000E+00  0.00000000E+00
  0.00000000E+00  0.00000000E+00  0.00000000E+00
  0.00000000E+00  0.00000000E+00  0.00000000E+00
  0.00000000E+00  0.00000000E+00  0.00000000E+00
  0.00000000E+00  0.00000000E+00  0.00000000E+00
