Graphene-BC3 Hollow with lattice paramet
   1.00000000000000     
     4.3725622637076311    2.5245000000000002    0.0000000000000000
    -4.3725622637076311    2.5245000000000002    0.0000000000000000
     0.0000000000000000    0.0000000000000000   15.0000000000000000
   B    C 
     2    14
Direct
  0.3383262948015114  0.6691631921218896  0.1002864567524605
  0.6716630615858767  0.3358312703235120  0.0999764597819524
  0.1645836718566296  0.3216766157465275  0.0999811232525963
  0.3241000241739702  0.1620502034934417  0.0999872163515374
  0.1645844096829184  0.8429060173465298  0.0999811239336225
  0.8454377733596234  0.1620477263908932  0.0999849427618100
  0.6858085341937178  0.8429038071214533  0.0999788036935488
  0.8454373650335989  0.6833890012463767  0.0999849515974888
  0.3333556945576163  0.1666777175779042  0.3255632373513596
  0.5000451669002809  1.0000851812587128  0.3255409008800674
  0.3333376655916610  0.6666687043695703  0.3252611307486580
  0.5000451651781092  0.4999596083387906  0.3255409011307402
  0.8333332316169598  0.1666790711192965  0.3255585990546878
  1.0000082930642191  1.0000039572250430  0.3255406463753003
  0.8333332356651779  0.6666539094950050  0.3255585994349804
  0.9999257460714630  0.4999626834917492  0.3255415735658614
 
  0.00000000E+00  0.00000000E+00  0.00000000E+00
  0.00000000E+00  0.00000000E+00  0.00000000E+00
  0.00000000E+00  0.00000000E+00  0.00000000E+00
  0.00000000E+00  0.00000000E+00  0.00000000E+00
  0.00000000E+00  0.00000000E+00  0.00000000E+00
  0.00000000E+00  0.00000000E+00  0.00000000E+00
  0.00000000E+00  0.00000000E+00  0.00000000E+00
  0.00000000E+00  0.00000000E+00  0.00000000E+00
  0.00000000E+00  0.00000000E+00  0.00000000E+00
  0.00000000E+00  0.00000000E+00  0.00000000E+00
  0.00000000E+00  0.00000000E+00  0.00000000E+00
  0.00000000E+00  0.00000000E+00  0.00000000E+00
  0.00000000E+00  0.00000000E+00  0.00000000E+00
  0.00000000E+00  0.00000000E+00  0.00000000E+00
  0.00000000E+00  0.00000000E+00  0.00000000E+00
  0.00000000E+00  0.00000000E+00  0.00000000E+00
