Graphene-BC3 Top with lattice parameter 
   1.00000000000000     
     4.3682321366887082    2.5219999999999998    0.0000000000000000
    -4.3682321366887082    2.5219999999999998    0.0000000000000000
     0.0000000000000000    0.0000000000000000   15.0000000000000000
   B    C 
     2    14
Direct
  0.3383347085051539  0.6691672459293164  0.1002357529252627
  0.6716675701603964  0.3358336266668875  0.1002357292514935
  0.1646255116287127  0.3217446993844533  0.0999096550077047
  0.3242479938864744  0.1621241387138367  0.0999086851381849
  0.1646264617446780  0.8428811511253637  0.0999096478608500
  0.8453840038117729  0.1621214727582071  0.0999111524154697
  0.6857658875626927  0.8428820088036451  0.0999117453535353
  0.8453851449376625  0.6832619293223255  0.0999111584563987
  0.1665647568646393  0.3331367509021265  0.3288842543574085
  0.3331341281980497  0.1665668687947821  0.3288853761390560
  0.1665647576045994  0.8334275859497373  0.3288842546297515
  0.3333265159234479  0.6666630638863855  0.3285841848935475
  0.6666599074186861  0.3333297416246062  0.3285841824437485
  0.8334250376970723  0.1665674435575262  0.3288818391229485
  0.6668545804905962  0.8334270792600675  0.3288805426877035
  0.8334250335653850  0.6668571933207423  0.3288818393169566
 
  0.00000000E+00  0.00000000E+00  0.00000000E+00
  0.00000000E+00  0.00000000E+00  0.00000000E+00
  0.00000000E+00  0.00000000E+00  0.00000000E+00
  0.00000000E+00  0.00000000E+00  0.00000000E+00
  0.00000000E+00  0.00000000E+00  0.00000000E+00
  0.00000000E+00  0.00000000E+00  0.00000000E+00
  0.00000000E+00  0.00000000E+00  0.00000000E+00
  0.00000000E+00  0.00000000E+00  0.00000000E+00
  0.00000000E+00  0.00000000E+00  0.00000000E+00
  0.00000000E+00  0.00000000E+00  0.00000000E+00
  0.00000000E+00  0.00000000E+00  0.00000000E+00
  0.00000000E+00  0.00000000E+00  0.00000000E+00
  0.00000000E+00  0.00000000E+00  0.00000000E+00
  0.00000000E+00  0.00000000E+00  0.00000000E+00
  0.00000000E+00  0.00000000E+00  0.00000000E+00
  0.00000000E+00  0.00000000E+00  0.00000000E+00
