Graphene-B4C3 Top with lattice parameter
   1.00000000000000     
     4.2106155131999410    2.4310000000000000    0.0000000000000000
    -4.2106155131999410    2.4310000000000000    0.0000000000000000
     0.0000000000000000    0.0000000000000000   15.0000000000000000
   B    C 
     4    11
Direct
  0.0040582161422371  0.0026976184895096  0.1009046505649095
  0.3592459570412907  0.0029993300799822  0.1004345371368633
  0.0037520330261667  0.3575823364060017  0.1004352532831212
  0.6491701457276956  0.6475101114989427  0.1004316677033074
  0.3276428243844693  0.3259803534644416  0.1004171072689834
  0.6807723218435482  0.0029988039774326  0.1004162560545540
  0.0037514550936611  0.6791081039585788  0.1004132503768971
  0.0001311951570086  0.5000609193329018  0.3350102672707261
  0.1667800654346020  0.3334480884559624  0.3350456412334541
  0.0001128343324355  0.0000689356521736  0.3349739021892875
  0.1668230815287933  0.8334023716642416  0.3350493912425578
  0.5001235581862171  0.5000986195597878  0.3350129608152333
  0.6667791624536112  0.3334038755272418  0.3349134573549540
  0.5000839498991677  0.0000506431879514  0.3350086206466473
  0.6667338664157891  0.8333572220781766  0.3350457035251867
 
  0.00000000E+00  0.00000000E+00  0.00000000E+00
  0.00000000E+00  0.00000000E+00  0.00000000E+00
  0.00000000E+00  0.00000000E+00  0.00000000E+00
  0.00000000E+00  0.00000000E+00  0.00000000E+00
  0.00000000E+00  0.00000000E+00  0.00000000E+00
  0.00000000E+00  0.00000000E+00  0.00000000E+00
  0.00000000E+00  0.00000000E+00  0.00000000E+00
  0.00000000E+00  0.00000000E+00  0.00000000E+00
  0.00000000E+00  0.00000000E+00  0.00000000E+00
  0.00000000E+00  0.00000000E+00  0.00000000E+00
  0.00000000E+00  0.00000000E+00  0.00000000E+00
  0.00000000E+00  0.00000000E+00  0.00000000E+00
  0.00000000E+00  0.00000000E+00  0.00000000E+00
  0.00000000E+00  0.00000000E+00  0.00000000E+00
  0.00000000E+00  0.00000000E+00  0.00000000E+00
