Graphene-BC3 Bridge with lattice paramet
   1.00000000000000     
     4.3690981620924925    2.5225000000000000    0.0000000000000000
    -4.3690981620924925    2.5225000000000000    0.0000000000000000
     0.0000000000000000    0.0000000000000000   15.0000000000000000
   B    C 
     2    14
Direct
  0.3060475149707449  0.7035624898041400  0.1008703818473083
  0.6392464892356541  0.3703673396082007  0.1004039746722312
  0.1321225170835813  0.3561004695386659  0.1004472807029171
  0.2915603850892373  0.1964423679702900  0.1004080021277666
  0.1323407663325729  0.8772657482800731  0.1002781850773839
  0.8129109656293005  0.1967886217987333  0.1004236757628854
  0.6533573482845796  0.8774992691217069  0.1004366790533899
  0.8129976951161454  0.7177917932595698  0.1003802424307396
  0.2824130955544024  0.2155051515057951  0.3259844756861038
  0.4490940572847310  0.0488949013258729  0.3258408995571251
  0.2824303510835018  0.7155107374075361  0.3256515246945510
  0.4491680876842886  0.5487858374190877  0.3258559715684780
  0.7823696249481548  0.2155704983179035  0.3259201197845977
  0.9490946645375762  0.0488589797924673  0.3259522358460955
  0.7824511909646461  0.7155362478231879  0.3259774428577764
  0.9490539128675886  0.5488448803600929  0.3258355749973076
 
  0.00000000E+00  0.00000000E+00  0.00000000E+00
  0.00000000E+00  0.00000000E+00  0.00000000E+00
  0.00000000E+00  0.00000000E+00  0.00000000E+00
  0.00000000E+00  0.00000000E+00  0.00000000E+00
  0.00000000E+00  0.00000000E+00  0.00000000E+00
  0.00000000E+00  0.00000000E+00  0.00000000E+00
  0.00000000E+00  0.00000000E+00  0.00000000E+00
  0.00000000E+00  0.00000000E+00  0.00000000E+00
  0.00000000E+00  0.00000000E+00  0.00000000E+00
  0.00000000E+00  0.00000000E+00  0.00000000E+00
  0.00000000E+00  0.00000000E+00  0.00000000E+00
  0.00000000E+00  0.00000000E+00  0.00000000E+00
  0.00000000E+00  0.00000000E+00  0.00000000E+00
  0.00000000E+00  0.00000000E+00  0.00000000E+00
  0.00000000E+00  0.00000000E+00  0.00000000E+00
  0.00000000E+00  0.00000000E+00  0.00000000E+00
