Graphene-BC3 Top with lattice parameter 
   1.00000000000000     
     4.3561077810357247    2.5149999999999992    0.0000000000000000
    -4.3561077810357247    2.5149999999999992    0.0000000000000000
     0.0000000000000000    0.0000000000000000   15.0000000000000000
   B    C 
     2    14
Direct
  0.3383345336324016  0.6691678321064166  0.1002391889627989
  0.6716673259295152  0.3358339381533818  0.1002391820542813
  0.1647128027719366  0.3219200011135155  0.0999150180220666
  0.3244229090146266  0.1622110500107984  0.0999140547602149
  0.1647141117675497  0.8427935582167032  0.0999150185646796
  0.8452961008405512  0.1622103828302944  0.0999165222631615
  0.6855869087398567  0.8427926293005983  0.0999171026559375
  0.8452979316917109  0.6830845428813803  0.0999165142678674
  0.1665680465127323  0.3331426147268479  0.3288784461188883
  0.3331403042778502  0.1665698958838027  0.3288795540749964
  0.1665680554741711  0.8334251374558416  0.3288784454223510
  0.3333271120873643  0.6666633050064728  0.3285820376828945
  0.6666604297462834  0.3333300708919748  0.3285820348835486
  0.8334228974997275  0.1665704259573364  0.3288760542482209
  0.6668496429062437  0.8334246771941921  0.3288747722199144
  0.8334228871074987  0.6668519382704521  0.3288760537981985
 
  0.00000000E+00  0.00000000E+00  0.00000000E+00
  0.00000000E+00  0.00000000E+00  0.00000000E+00
  0.00000000E+00  0.00000000E+00  0.00000000E+00
  0.00000000E+00  0.00000000E+00  0.00000000E+00
  0.00000000E+00  0.00000000E+00  0.00000000E+00
  0.00000000E+00  0.00000000E+00  0.00000000E+00
  0.00000000E+00  0.00000000E+00  0.00000000E+00
  0.00000000E+00  0.00000000E+00  0.00000000E+00
  0.00000000E+00  0.00000000E+00  0.00000000E+00
  0.00000000E+00  0.00000000E+00  0.00000000E+00
  0.00000000E+00  0.00000000E+00  0.00000000E+00
  0.00000000E+00  0.00000000E+00  0.00000000E+00
  0.00000000E+00  0.00000000E+00  0.00000000E+00
  0.00000000E+00  0.00000000E+00  0.00000000E+00
  0.00000000E+00  0.00000000E+00  0.00000000E+00
  0.00000000E+00  0.00000000E+00  0.00000000E+00
