Graphene-Borophene Bridge with lattice p
   1.00000000000000     
     4.3093424092313661    2.4880000000000000    0.0000000000000000
    -4.3093424092313661    2.4880000000000000    0.0000000000000000
     0.0000000000000000    0.0000000000000000   15.0000000000000000
   B    C 
     8     8
Direct
  0.6733464779030980 -0.0045375839486600  0.1681046332359510
  0.3358296081975115 -0.0044636168314786  0.1681767542781605
  0.0045375839486600  0.3266525220969050  0.1681046332359510
  0.0044636168314786  0.6641693918024907  0.1681767542781605
  0.3356174849575966  0.3266346566514961  0.1670894276305120
  0.6733643433485069  0.6643815150424063  0.1670894276305120
  0.6708424480200302  0.3291565519799721  0.1561334343510262
  0.3375212804583254  0.6624777195416770  0.1795353626707375
  0.2456614245084118  0.2545264525122963  0.4012069157729188
  0.4123364221276238  0.0879225358293650  0.4014170108205734
  0.2454524459043185  0.7545465540956841  0.4014161084741341
  0.4121519584464875  0.5878470415535149  0.4012595570369388
  0.7456682610013338  0.2543307389986684  0.4012236790327225
  0.9123172993549775  0.0876817006450252  0.4009757082915813
  0.7454725474877067  0.7543375754915905  0.4012069157729188
  0.9120764641706376  0.5876625778723785  0.4014170108205734
 
  0.00000000E+00  0.00000000E+00  0.00000000E+00
  0.00000000E+00  0.00000000E+00  0.00000000E+00
  0.00000000E+00  0.00000000E+00  0.00000000E+00
  0.00000000E+00  0.00000000E+00  0.00000000E+00
  0.00000000E+00  0.00000000E+00  0.00000000E+00
  0.00000000E+00  0.00000000E+00  0.00000000E+00
  0.00000000E+00  0.00000000E+00  0.00000000E+00
  0.00000000E+00  0.00000000E+00  0.00000000E+00
  0.00000000E+00  0.00000000E+00  0.00000000E+00
  0.00000000E+00  0.00000000E+00  0.00000000E+00
  0.00000000E+00  0.00000000E+00  0.00000000E+00
  0.00000000E+00  0.00000000E+00  0.00000000E+00
  0.00000000E+00  0.00000000E+00  0.00000000E+00
  0.00000000E+00  0.00000000E+00  0.00000000E+00
  0.00000000E+00  0.00000000E+00  0.00000000E+00
  0.00000000E+00  0.00000000E+00  0.00000000E+00
