Graphene-B4C3 Hollow 2 with lattice para
   1.00000000000000     
     4.1889648781053292    2.4184999999999999    0.0000000000000000
    -4.1889648781053292    2.4184999999999999    0.0000000000000000
     0.0000000000000000    0.0000000000000000   15.0000000000000000
   B    C 
     4    11
Direct
  0.0043001400914235  0.0028850043585622  0.1010290436810001
  0.3594361249687764  0.0028505928555134  0.1012195054695733
  0.0042850983866500  0.3579843712086295  0.1012216053344456
  0.6490858054532848  0.6476504781810987  0.1012287851493149
  0.3279844331450152  0.3265548545894033  0.1011550886443304
  0.6805341215980678  0.0028506488401953  0.1011627171481520
  0.0042845178436031  0.6790758494606147  0.1011648216458595
  0.1665891097949162  0.3332805930306676  0.3379142460882843
  0.3332541094815327  0.1666043095809090  0.3379162142004059
  0.1666151755518409  0.8333038927394374  0.3379185172940147
  0.3332402515218204  0.6666056692550379  0.3377853116040537
  0.6665743991919248  0.3332699879021839  0.3377853173222150
  0.8332765913606180  0.1666413604182186  0.3379178098551361
  0.6665811906637880  0.8332684028275480  0.3379141382121845
  0.8332529309467456  0.6666079847519911  0.3379128783510570
 
  0.00000000E+00  0.00000000E+00  0.00000000E+00
  0.00000000E+00  0.00000000E+00  0.00000000E+00
  0.00000000E+00  0.00000000E+00  0.00000000E+00
  0.00000000E+00  0.00000000E+00  0.00000000E+00
  0.00000000E+00  0.00000000E+00  0.00000000E+00
  0.00000000E+00  0.00000000E+00  0.00000000E+00
  0.00000000E+00  0.00000000E+00  0.00000000E+00
  0.00000000E+00  0.00000000E+00  0.00000000E+00
  0.00000000E+00  0.00000000E+00  0.00000000E+00
  0.00000000E+00  0.00000000E+00  0.00000000E+00
  0.00000000E+00  0.00000000E+00  0.00000000E+00
  0.00000000E+00  0.00000000E+00  0.00000000E+00
  0.00000000E+00  0.00000000E+00  0.00000000E+00
  0.00000000E+00  0.00000000E+00  0.00000000E+00
  0.00000000E+00  0.00000000E+00  0.00000000E+00
