Graphene-Borophene Top with lattice para
   1.00000000000000     
     4.3257968919032708    2.4975000000000001    0.0000000000000000
    -4.3257968919032708    2.4975000000000001    0.0000000000000000
     0.0000000000000000    0.0000000000000000   15.0000000000000000
   B    C 
     8     8
Direct
  0.6693577555358076 -0.0000077447588568  0.1664351231307840
  0.3306334997053383 -0.0000077447588568  0.1664351231307841
  0.0000077447588568  0.3306412444641945  0.1664351231307840
  0.0000077447588568  0.6693655002946641  0.1664351231307840
  0.3306334997053383  0.3306412444641945  0.1664351231307841
  0.6693577555358076  0.6693655002946641  0.1664351231307841
  0.6666659999999993  0.3333330000000032  0.1653609113382147
  0.3333330000000032  0.6666659999999993  0.1672498349359174
  0.1666621915950465  0.3333253831900975  0.4013261267687717
  0.3333251260852840  0.1666620630426397  0.4013203201329330
  0.1666621915950465  0.8333368084049555  0.4013261267687717
  0.3333330000000032  0.6666659999999993  0.4013518924882292
  0.6666659999999993  0.3333330000000032  0.4013539484145118
  0.8333369369573632  0.1666620630426397  0.4013203201329330
  0.6666736168099047  0.8333368084049555  0.4013261267687717
  0.8333369369573632  0.6666738739147188  0.4013203201329330
 
  0.00000000E+00  0.00000000E+00  0.00000000E+00
  0.00000000E+00  0.00000000E+00  0.00000000E+00
  0.00000000E+00  0.00000000E+00  0.00000000E+00
  0.00000000E+00  0.00000000E+00  0.00000000E+00
  0.00000000E+00  0.00000000E+00  0.00000000E+00
  0.00000000E+00  0.00000000E+00  0.00000000E+00
  0.00000000E+00  0.00000000E+00  0.00000000E+00
  0.00000000E+00  0.00000000E+00  0.00000000E+00
  0.00000000E+00  0.00000000E+00  0.00000000E+00
  0.00000000E+00  0.00000000E+00  0.00000000E+00
  0.00000000E+00  0.00000000E+00  0.00000000E+00
  0.00000000E+00  0.00000000E+00  0.00000000E+00
  0.00000000E+00  0.00000000E+00  0.00000000E+00
  0.00000000E+00  0.00000000E+00  0.00000000E+00
  0.00000000E+00  0.00000000E+00  0.00000000E+00
  0.00000000E+00  0.00000000E+00  0.00000000E+00
