Graphene-B4C3 Hollow_2 with lattice para
   1.00000000000000     
     4.1967591067393899    2.4230000000000000    0.0000000000000000
    -4.1967591067393899    2.4230000000000000    0.0000000000000000
     0.0000000000000000    0.0000000000000000   15.0000000000000000
    B   C
    4   3
Direct
  0.0044335336195663  0.0029437636033547  0.0989970421976287
  0.3595859782302712  0.0029488620262884  0.1003947934129929
  0.0044411831161336  0.3580878072810049  0.1003968004687169
  0.6493042362798714  0.6478126799305869  0.1003988411064838
  0.3281499739210895  0.3266508329385412  0.1001709061379725
  0.6807770114057387  0.0029649998840212  0.1001728864259501
  0.0044639214874111  0.6792950431588750  0.1001734437171563
