Graphene-Borophene Hollow 2 with lattice
   1.00000000000000     
     4.3734282891114127    2.5249999999999986    0.0000000000000000
    -4.3734282891114127    2.5249999999999986    0.0000000000000000
     0.0000000000000000    0.0000000000000000   15.0000000000000000
   B    C 
     8     8
Direct
  0.6688198567166657 -0.0000355724308956  0.1661140240483458
  0.3311435708524411 -0.0000355724308956  0.1661140240483458
  0.0000355724308956  0.3311791432833365  0.1661140240483458
  0.0000355724308956  0.6688554291475616  0.1661140240483458
  0.3311435708524411  0.3311791432833365  0.1661140240483458
  0.6688198567166657  0.6688554291475616  0.1661140240483458
  0.6666659999999993  0.3333330000000032  0.1649687302420569
  0.3333330000000032  0.6666659999999993  0.1676768641896795
  0.3333514416886345  0.1666757208443243  0.4044206627678713
  0.5000248378522940  0.0000496757045883  0.4044901093533793
  0.3333326666666636  0.6666663333333389  0.4044296137873142
  0.5000248378522940  0.4999741621477081  0.4044901093533793
  0.8333232791556779  0.1666757208443243  0.4044206627678713
  0.9999996666666675  0.9999993333333350  0.4043083311271140
  0.8333232791556779  0.6666475583113681  0.4044206627678713
 -0.0000506757045858  0.4999741621477081  0.4044901093533793
 
  0.00000000E+00  0.00000000E+00  0.00000000E+00
  0.00000000E+00  0.00000000E+00  0.00000000E+00
  0.00000000E+00  0.00000000E+00  0.00000000E+00
  0.00000000E+00  0.00000000E+00  0.00000000E+00
  0.00000000E+00  0.00000000E+00  0.00000000E+00
  0.00000000E+00  0.00000000E+00  0.00000000E+00
  0.00000000E+00  0.00000000E+00  0.00000000E+00
  0.00000000E+00  0.00000000E+00  0.00000000E+00
  0.00000000E+00  0.00000000E+00  0.00000000E+00
  0.00000000E+00  0.00000000E+00  0.00000000E+00
  0.00000000E+00  0.00000000E+00  0.00000000E+00
  0.00000000E+00  0.00000000E+00  0.00000000E+00
  0.00000000E+00  0.00000000E+00  0.00000000E+00
  0.00000000E+00  0.00000000E+00  0.00000000E+00
  0.00000000E+00  0.00000000E+00  0.00000000E+00
  0.00000000E+00  0.00000000E+00  0.00000000E+00
