Graphene-B4C3 Hollow 1 with lattice para
   1.00000000000000     
     4.2002232083545250    2.4249999999999989    0.0000000000000000
    -4.2002232083545250    2.4249999999999989    0.0000000000000000
     0.0000000000000000    0.0000000000000000   15.0000000000000000
   B    C 
     4    11
Direct
  0.0658853100581931 -0.0521331037435060  0.1023793474215787
  0.4210510350601108 -0.0518436875718436  0.1029486163973407
  0.0655748197399516  0.3027579291935260  0.1029265170288702
  0.7109833353152084  0.5926787957672081  0.1029276433810879
  0.3895742732137910  0.2712599648222828  0.1027782656281094
  0.7424773261010436 -0.0518431857340147  0.1027853461128395
  0.0655873588146574  0.6241617022260485  0.1027768514330298
  0.0571539599022405  0.4369334499999925  0.3365243238946706
  0.2238019546501175  0.2703168916142706  0.3365797815185492
  0.0571376561023528  0.9369437246609352  0.3364954135045305
  0.2238377477316680  0.7702658869571457  0.3365824769815550
  0.5571380938162350  0.4369685156955410  0.3365386368023367
  0.7237975303140018  0.2702729986086033  0.3364358185483418
  0.5570991891595518  0.9369217354260060  0.3365305012199467
  0.7237499655764271  0.7702168265222724  0.3365697934605352
 
  0.00000000E+00  0.00000000E+00  0.00000000E+00
  0.00000000E+00  0.00000000E+00  0.00000000E+00
  0.00000000E+00  0.00000000E+00  0.00000000E+00
  0.00000000E+00  0.00000000E+00  0.00000000E+00
  0.00000000E+00  0.00000000E+00  0.00000000E+00
  0.00000000E+00  0.00000000E+00  0.00000000E+00
  0.00000000E+00  0.00000000E+00  0.00000000E+00
  0.00000000E+00  0.00000000E+00  0.00000000E+00
  0.00000000E+00  0.00000000E+00  0.00000000E+00
  0.00000000E+00  0.00000000E+00  0.00000000E+00
  0.00000000E+00  0.00000000E+00  0.00000000E+00
  0.00000000E+00  0.00000000E+00  0.00000000E+00
  0.00000000E+00  0.00000000E+00  0.00000000E+00
  0.00000000E+00  0.00000000E+00  0.00000000E+00
  0.00000000E+00  0.00000000E+00  0.00000000E+00
