Graphene-B4C3 Hollow 2 with lattice para
   1.00000000000000     
     4.1950270559318197    2.4219999999999997    0.0000000000000000
    -4.1950270559318197    2.4219999999999997    0.0000000000000000
     0.0000000000000000    0.0000000000000000   15.0000000000000000
   B    C 
     4    11
Direct
  0.0043796680207244  0.0029129154345179  0.0996490258804868
  0.3595296503190384  0.0029166362508846  0.1010825520954357
  0.0043888999954683  0.3580628527196405  0.1010849079268101
  0.6492337535128101  0.6477620198903005  0.1010910534854659
  0.3280713908065867  0.3266016366737561  0.1008580590403870
  0.6806985674601754  0.0029144959731371  0.1008515317909346
  0.0043846884237916  0.6792281417952130  0.1008508203572625
  0.1664702604083158  0.3332104007871510  0.3382482307951633
  0.3331571106707830  0.1665244009945588  0.3382499266257949
  0.1665103153562391  0.8332321921893996  0.3382518784754875
  0.3331607599480959  0.6665480973514846  0.3381416145235470
  0.6664947251525060  0.3332129700046016  0.3381416225349973
  0.8331781756348537  0.1665629749685297  0.3382512693699904
  0.6664954558569854  0.8331953692967352  0.3382472891672159
  0.8331405784336335  0.6665488956701012  0.3382462179310478
 
  0.00000000E+00  0.00000000E+00  0.00000000E+00
  0.00000000E+00  0.00000000E+00  0.00000000E+00
  0.00000000E+00  0.00000000E+00  0.00000000E+00
  0.00000000E+00  0.00000000E+00  0.00000000E+00
  0.00000000E+00  0.00000000E+00  0.00000000E+00
  0.00000000E+00  0.00000000E+00  0.00000000E+00
  0.00000000E+00  0.00000000E+00  0.00000000E+00
  0.00000000E+00  0.00000000E+00  0.00000000E+00
  0.00000000E+00  0.00000000E+00  0.00000000E+00
  0.00000000E+00  0.00000000E+00  0.00000000E+00
  0.00000000E+00  0.00000000E+00  0.00000000E+00
  0.00000000E+00  0.00000000E+00  0.00000000E+00
  0.00000000E+00  0.00000000E+00  0.00000000E+00
  0.00000000E+00  0.00000000E+00  0.00000000E+00
  0.00000000E+00  0.00000000E+00  0.00000000E+00
