Graphene-B4C3 Top with lattice parameter
   1.00000000000000     
     4.1976251321431741    2.4235000000000002    0.0000000000000000
    -4.1976251321431741    2.4235000000000002    0.0000000000000000
     0.0000000000000000    0.0000000000000000   15.0000000000000000
   B    C 
     4    11
Direct
  0.0040461221479671  0.0026867621025321  0.1012412514340655
  0.3592337737993126  0.0029688764807065  0.1005054304503142
  0.0037617744839114  0.3575943127749585  0.1005062420757003
  0.6491411392663095  0.6475037359745368  0.1005025442243032
  0.3277681897200616  0.3261326250600259  0.1005183880245630
  0.6806029006208141  0.0029649044800353  0.1005180611928546
  0.0037648884536574  0.6789713002332677  0.1005152748031412
  0.0001425113499388  0.5000671347854455  0.3349041257110879
  0.1667896156912004  0.3334577968357563  0.3349389873127829
  0.0001214480824393  0.0000752552617083  0.3348662427935819
  0.1668363726561879  0.8334101593651377  0.3349428769201716
  0.5001320855126277  0.5001089249629921  0.3349068273210181
  0.6667893639027077  0.3334106003086976  0.3348046915821322
  0.5000890227707967  0.0000543263859510  0.3349025631997203
  0.6667414582087620  0.8333606183215734  0.3349391596212470
 
  0.00000000E+00  0.00000000E+00  0.00000000E+00
  0.00000000E+00  0.00000000E+00  0.00000000E+00
  0.00000000E+00  0.00000000E+00  0.00000000E+00
  0.00000000E+00  0.00000000E+00  0.00000000E+00
  0.00000000E+00  0.00000000E+00  0.00000000E+00
  0.00000000E+00  0.00000000E+00  0.00000000E+00
  0.00000000E+00  0.00000000E+00  0.00000000E+00
  0.00000000E+00  0.00000000E+00  0.00000000E+00
  0.00000000E+00  0.00000000E+00  0.00000000E+00
  0.00000000E+00  0.00000000E+00  0.00000000E+00
  0.00000000E+00  0.00000000E+00  0.00000000E+00
  0.00000000E+00  0.00000000E+00  0.00000000E+00
  0.00000000E+00  0.00000000E+00  0.00000000E+00
  0.00000000E+00  0.00000000E+00  0.00000000E+00
  0.00000000E+00  0.00000000E+00  0.00000000E+00
