BC3 with lattice parameter 5.169        
   1.00000000000000     
     4.4764850000000003    2.5844999999999998    0.0000000000000000
    -4.4764850000000003    2.5844999999999998    0.0000000000000000
     0.0000000000000000    0.0000000000000000   15.0000000000000000
   B    C 
     2     6
Direct
  0.3383342898894640  0.6691650909405101  0.2500000000000000
  0.6716662253384238  0.3358318868248875  0.2500000000000000
  0.1637445005363109  0.3199961824184535  0.2500000000000000
  0.3224962734611762  0.1612483127535900  0.2500000000000000
  0.1637522339010364  0.8437504321692655  0.2500000000000000
  0.8462462174240104  0.1612493178327999  0.2500000000000000
  0.6875032370395124  0.8437520898593470  0.2500000000000000
  0.8462530224100679  0.6850026872011454  0.2500000000000000
 
  0.00000000E+00  0.00000000E+00  0.00000000E+00
  0.00000000E+00  0.00000000E+00  0.00000000E+00
  0.00000000E+00  0.00000000E+00  0.00000000E+00
  0.00000000E+00  0.00000000E+00  0.00000000E+00
  0.00000000E+00  0.00000000E+00  0.00000000E+00
  0.00000000E+00  0.00000000E+00  0.00000000E+00
  0.00000000E+00  0.00000000E+00  0.00000000E+00
  0.00000000E+00  0.00000000E+00  0.00000000E+00
