Graphene-BC3 Bridge with lattice paramet
   1.00000000000000     
     4.3613039334584327    2.5179999999999998    0.0000000000000000
    -4.3613039334584327    2.5179999999999998    0.0000000000000000
     0.0000000000000000    0.0000000000000000   15.0000000000000000
   B    C 
     2    14
Direct
  0.3076835163316202  0.7015707675150330  0.1009934416233189
  0.6412058814556956  0.3681125734483090  0.1006923074241989
  0.1341685891675818  0.3542237885607821  0.1006895658409879
  0.2937437643624407  0.1945371568208961  0.1007245490312227
  0.1340528956747157  0.8752490335378439  0.1006985130660780
  0.8148401531958005  0.1944297140118639  0.1006724611859677
  0.6550119232101977  0.8751055385465062  0.1006549374722426
  0.8147181127594645  0.7155070959532246  0.1006865647294865
  0.2805948040654932  0.2176428321832933  0.3256503598745554
  0.4472516385518457  0.0510742469711476  0.3256437090546225
  0.2805736996042838  0.7176548864792469  0.3253391941374685
  0.4472589790388243  0.5509626725269320  0.3256578997248447
  0.7805652843890205  0.2176672529890189  0.3256263137028530
  0.9472492466042666  0.0509791141567284  0.3256511427858437
  0.7805869157692554  0.7176353707199866  0.3256451705522481
  0.9471532624861986  0.5509732889125122  0.3256405364607173
 
  0.00000000E+00  0.00000000E+00  0.00000000E+00
  0.00000000E+00  0.00000000E+00  0.00000000E+00
  0.00000000E+00  0.00000000E+00  0.00000000E+00
  0.00000000E+00  0.00000000E+00  0.00000000E+00
  0.00000000E+00  0.00000000E+00  0.00000000E+00
  0.00000000E+00  0.00000000E+00  0.00000000E+00
  0.00000000E+00  0.00000000E+00  0.00000000E+00
  0.00000000E+00  0.00000000E+00  0.00000000E+00
  0.00000000E+00  0.00000000E+00  0.00000000E+00
  0.00000000E+00  0.00000000E+00  0.00000000E+00
  0.00000000E+00  0.00000000E+00  0.00000000E+00
  0.00000000E+00  0.00000000E+00  0.00000000E+00
  0.00000000E+00  0.00000000E+00  0.00000000E+00
  0.00000000E+00  0.00000000E+00  0.00000000E+00
  0.00000000E+00  0.00000000E+00  0.00000000E+00
  0.00000000E+00  0.00000000E+00  0.00000000E+00
