Graphene-B4C3 Bridge with lattice parame
   1.00000000000000     
     4.1941610305280363    2.4215000000000000    0.0000000000000000
    -4.1941610305280363    2.4215000000000000    0.0000000000000000
     0.0000000000000000    0.0000000000000000   15.0000000000000000
   B    C 
     4    11
Direct
  0.0086967985060339 -0.0015358486382117  0.0995791610686096
  0.3638512431595066 -0.0014810564522010  0.1012034433610978
  0.0086507718229078  0.3535634185695096  0.1014669771424517
  0.6537387923524909  0.6432817050572117  0.1013822512319877
  0.3325596005644631  0.3219402533489843  0.1011079077320997
  0.6853058290579059 -0.0013504066329711  0.1009122537324982
  0.0086411273340850  0.6746979804483391  0.1011189832115501
  0.0793391370744660  0.4204820429670773  0.3373082605369492
  0.2460052426320753  0.2537634805238905  0.3374085938695459
  0.0793378918273477  0.9205249995938461  0.3373822919926018
  0.2460228267571122  0.7537812119914310  0.3372658956725231
  0.5792663093855447  0.4204711770856790  0.3373320450229516
  0.7459721391205876  0.2537546427157166  0.3372208513670426
  0.5792749983886266  0.9204681575598396  0.3373993451984247
  0.7459646253501689  0.7537389085285551  0.3372910721930026
 
  0.00000000E+00  0.00000000E+00  0.00000000E+00
  0.00000000E+00  0.00000000E+00  0.00000000E+00
  0.00000000E+00  0.00000000E+00  0.00000000E+00
  0.00000000E+00  0.00000000E+00  0.00000000E+00
  0.00000000E+00  0.00000000E+00  0.00000000E+00
  0.00000000E+00  0.00000000E+00  0.00000000E+00
  0.00000000E+00  0.00000000E+00  0.00000000E+00
  0.00000000E+00  0.00000000E+00  0.00000000E+00
  0.00000000E+00  0.00000000E+00  0.00000000E+00
  0.00000000E+00  0.00000000E+00  0.00000000E+00
  0.00000000E+00  0.00000000E+00  0.00000000E+00
  0.00000000E+00  0.00000000E+00  0.00000000E+00
  0.00000000E+00  0.00000000E+00  0.00000000E+00
  0.00000000E+00  0.00000000E+00  0.00000000E+00
  0.00000000E+00  0.00000000E+00  0.00000000E+00
