Graphene-B4C3 Bridge with lattice parame
   1.00000000000000     
     4.1941610305280363    2.4215000000000000    0.0000000000000000
    -4.1941610305280363    2.4215000000000000    0.0000000000000000
     0.0000000000000000    0.0000000000000000   15.0000000000000000
   B    C 
     4    11
Direct
  0.0085443804517180 -0.0013708883975540  0.0996413576096477
  0.3636981719003615 -0.0013341042072615  0.1012062722052842
  0.0084768894962868  0.3536757910998127  0.1014764904692288
  0.6535720045417125  0.6434319510609737  0.1013898325184017
  0.3324017711892836  0.3220720146805182  0.1011284463877939
  0.6851536444574327 -0.0011680946443011  0.1009305616347705
  0.0085009512113414  0.6748493620107814  0.1011395213566873
  0.0794584947092350  0.4203343412852548  0.3372885165411193
  0.2461269250433220  0.2536453406745358  0.3373956452829591
  0.0794765878911650  0.9203750316923258  0.3373645123269206
  0.2461694909583357  0.7536665363780373  0.3372475678515039
  0.5794336456596371  0.4203300734987408  0.3373119234638586
  0.7461108295225916  0.2536385085219900  0.3372021124924072
  0.5794176870588764  0.9203268531672065  0.3373811915691129
  0.7460858592420226  0.7536279498456359  0.3372753816236407
 
  0.00000000E+00  0.00000000E+00  0.00000000E+00
  0.00000000E+00  0.00000000E+00  0.00000000E+00
  0.00000000E+00  0.00000000E+00  0.00000000E+00
  0.00000000E+00  0.00000000E+00  0.00000000E+00
  0.00000000E+00  0.00000000E+00  0.00000000E+00
  0.00000000E+00  0.00000000E+00  0.00000000E+00
  0.00000000E+00  0.00000000E+00  0.00000000E+00
  0.00000000E+00  0.00000000E+00  0.00000000E+00
  0.00000000E+00  0.00000000E+00  0.00000000E+00
  0.00000000E+00  0.00000000E+00  0.00000000E+00
  0.00000000E+00  0.00000000E+00  0.00000000E+00
  0.00000000E+00  0.00000000E+00  0.00000000E+00
  0.00000000E+00  0.00000000E+00  0.00000000E+00
  0.00000000E+00  0.00000000E+00  0.00000000E+00
  0.00000000E+00  0.00000000E+00  0.00000000E+00
