Graphene-BC3 Hollow with lattice paramet
   1.00000000000000     
     4.3517776540168045    2.5125000000000002    0.0000000000000000
    -4.3517776540168045    2.5125000000000002    0.0000000000000000
     0.0000000000000000    0.0000000000000000   15.0000000000000000
   B    C 
     2    14
Direct
  0.3382549419045321  0.6691258147030424  0.1005881736025176
  0.6715917951479166  0.3357929842944085  0.1002633775545101
  0.1646643527606086  0.3219450396611550  0.1002821892711079
  0.3243316916498257  0.1621649801238684  0.1002945047443261
  0.1646631293457249  0.8427170662451627  0.1002826781528541
  0.8452114316500102  0.1621624602494190  0.1002695338434975
  0.6854301788167685  0.8427136575806006  0.1002581104066669
  0.8452137794483099  0.6830481481813997  0.1002700409759144
  0.3334283918306957  0.1667150195923235  0.3252708512444494
  0.5001172298381338  0.0001213839793201  0.3252485479426782
  0.3334102045717071  0.6667059471026419  0.3249653268749602
  0.5001172304637073  0.4999974280682899  0.3252485498749515
  0.8334055136862915  0.1667162925050739  0.3252660179983984
  0.0000807074842970  0.0000411323595368  0.3252435998052166
  0.8334055384084059  0.6666909079845241  0.3252660263053709
  0.9999992163264003  0.5000004040359285  0.3252491380692518
 
  0.00000000E+00  0.00000000E+00  0.00000000E+00
  0.00000000E+00  0.00000000E+00  0.00000000E+00
  0.00000000E+00  0.00000000E+00  0.00000000E+00
  0.00000000E+00  0.00000000E+00  0.00000000E+00
  0.00000000E+00  0.00000000E+00  0.00000000E+00
  0.00000000E+00  0.00000000E+00  0.00000000E+00
  0.00000000E+00  0.00000000E+00  0.00000000E+00
  0.00000000E+00  0.00000000E+00  0.00000000E+00
  0.00000000E+00  0.00000000E+00  0.00000000E+00
  0.00000000E+00  0.00000000E+00  0.00000000E+00
  0.00000000E+00  0.00000000E+00  0.00000000E+00
  0.00000000E+00  0.00000000E+00  0.00000000E+00
  0.00000000E+00  0.00000000E+00  0.00000000E+00
  0.00000000E+00  0.00000000E+00  0.00000000E+00
  0.00000000E+00  0.00000000E+00  0.00000000E+00
  0.00000000E+00  0.00000000E+00  0.00000000E+00
