Graphene-B4C3 Bridge with lattice parame
   1.00000000000000     
     4.1880988527015450    2.4180000000000001    0.0000000000000000
    -4.1880988527015450    2.4180000000000001    0.0000000000000000
     0.0000000000000000    0.0000000000000000   15.0000000000000000
   B    C 
     4    11
Direct
  0.0164626642937096 -0.0089813104952461  0.0998528053117707
  0.3716795900624614 -0.0088687598826480  0.1016019553090231
  0.0164515586949961  0.3461433392513417  0.1017646926275067
  0.6615904082566033  0.6358827294637447  0.1017168126861499
  0.3403182761264409  0.3145868429775685  0.1014163284548099
  0.6930029937534283 -0.0088508881184010  0.1011619532044828
  0.0164375989332156  0.6674221531901514  0.1014240787030933
  0.0725990639523273  0.4269657786977546  0.3370263031423438
  0.2391983213898783  0.2603446390860547  0.3371634163996961
  0.0726081030246727  0.9269573289145784  0.3370743995307096
  0.2393354858053628  0.7603177276070409  0.3370167608766997
  0.5724380698017894  0.4268622782775518  0.3370467552431984
  0.7390875900202815  0.2601668738218723  0.3369518793832320
  0.5723801896189439  0.9268792003335485  0.3371247491883341
  0.7390374195992104  0.7602727335417836  0.3370364432722858
 
  0.00000000E+00  0.00000000E+00  0.00000000E+00
  0.00000000E+00  0.00000000E+00  0.00000000E+00
  0.00000000E+00  0.00000000E+00  0.00000000E+00
  0.00000000E+00  0.00000000E+00  0.00000000E+00
  0.00000000E+00  0.00000000E+00  0.00000000E+00
  0.00000000E+00  0.00000000E+00  0.00000000E+00
  0.00000000E+00  0.00000000E+00  0.00000000E+00
  0.00000000E+00  0.00000000E+00  0.00000000E+00
  0.00000000E+00  0.00000000E+00  0.00000000E+00
  0.00000000E+00  0.00000000E+00  0.00000000E+00
  0.00000000E+00  0.00000000E+00  0.00000000E+00
  0.00000000E+00  0.00000000E+00  0.00000000E+00
  0.00000000E+00  0.00000000E+00  0.00000000E+00
  0.00000000E+00  0.00000000E+00  0.00000000E+00
  0.00000000E+00  0.00000000E+00  0.00000000E+00
