Graphene-Borophene Bridge with lattice p
   1.00000000000000     
     4.3110744600389355    2.4889999999999999    0.0000000000000000
    -4.3110744600389355    2.4889999999999999    0.0000000000000000
     0.0000000000000000    0.0000000000000000   15.0000000000000000
   B    C 
     8     8
Direct
  0.6798774483275410 -0.0111738334302160  0.1694605800728240
  0.3424905243834410 -0.0111335564577449  0.1678789607998054
  0.0111738334302160  0.3201215516724617  0.1694605800728240
  0.0111335564577449  0.6575084756165612  0.1678789607998054
  0.3423803567714500  0.3200036267998172  0.1681889913620919
  0.6799953732001859  0.6576186432285526  0.1681889913620919
  0.6776259297322489  0.3223730702677534  0.1563654682463707
  0.3440907310383577  0.6559082689616444  0.1807103198229991
  0.2389112687578995  0.2610751183624631  0.4005641233246421
  0.4055787130213644  0.0944640737746394  0.4005310730525203
  0.2388992131383660  0.7610997868616364  0.4006551686757658
  0.4055787739519489  0.5944202260480534  0.4006530055827887
  0.7388996633355684  0.2610993366644342  0.4005118767799771
  0.9055654732574691  0.0944335267425336  0.4003900370017040
  0.7389238816375392  0.7610877312421030  0.4005641233246421
  0.9055349262253632  0.5944202869786380  0.4005310730525203
 
  0.00000000E+00  0.00000000E+00  0.00000000E+00
  0.00000000E+00  0.00000000E+00  0.00000000E+00
  0.00000000E+00  0.00000000E+00  0.00000000E+00
  0.00000000E+00  0.00000000E+00  0.00000000E+00
  0.00000000E+00  0.00000000E+00  0.00000000E+00
  0.00000000E+00  0.00000000E+00  0.00000000E+00
  0.00000000E+00  0.00000000E+00  0.00000000E+00
  0.00000000E+00  0.00000000E+00  0.00000000E+00
  0.00000000E+00  0.00000000E+00  0.00000000E+00
  0.00000000E+00  0.00000000E+00  0.00000000E+00
  0.00000000E+00  0.00000000E+00  0.00000000E+00
  0.00000000E+00  0.00000000E+00  0.00000000E+00
  0.00000000E+00  0.00000000E+00  0.00000000E+00
  0.00000000E+00  0.00000000E+00  0.00000000E+00
  0.00000000E+00  0.00000000E+00  0.00000000E+00
  0.00000000E+00  0.00000000E+00  0.00000000E+00
