Graphene-Borophene Hollow 1 with lattice
   1.00000000000000     
     4.2911558757518931    2.4775000000000000    0.0000000000000000
    -4.2911558757518931    2.4775000000000000    0.0000000000000000
     0.0000000000000000    0.0000000000000000   15.0000000000000000
   B    C 
     8     8
Direct
  0.6713927935502920 -0.0029670931947004  0.1674844437808437
  0.3338535611247262 -0.0028725464244918  0.1676896578252377
  0.0029670931947004  0.3286062064497111  0.1674844437808437
  0.0028725464244918  0.6661454388752762  0.1676896578252377
  0.3337331366649378  0.3285256406550737  0.1676494286341055
  0.6714733593449292  0.6662658633350649  0.1676494286341055
  0.6691973125029002  0.3308016874971028  0.1542831456191927
  0.3358389566594182  0.6641600433405846  0.1824397502694105
  0.2751735604084281  0.2249258509896520  0.4018204350822845
  0.4417919968481223  0.0582409418741909  0.4018169444548713
  0.2750734683001301  0.7249255316998725  0.4017944865870806
  0.4418241802474516  0.5581748197525510  0.4019031751571243
  0.7750820469393943  0.2249169530606086  0.4017902803328439
  0.9417766695428499  0.0582223304571527  0.4016673424796725
  0.7750731490103501  0.7248254395915744  0.4018204350822845
  0.9417580581258111  0.5582070031518804  0.4018169444548713
 
  0.00000000E+00  0.00000000E+00  0.00000000E+00
  0.00000000E+00  0.00000000E+00  0.00000000E+00
  0.00000000E+00  0.00000000E+00  0.00000000E+00
  0.00000000E+00  0.00000000E+00  0.00000000E+00
  0.00000000E+00  0.00000000E+00  0.00000000E+00
  0.00000000E+00  0.00000000E+00  0.00000000E+00
  0.00000000E+00  0.00000000E+00  0.00000000E+00
  0.00000000E+00  0.00000000E+00  0.00000000E+00
  0.00000000E+00  0.00000000E+00  0.00000000E+00
  0.00000000E+00  0.00000000E+00  0.00000000E+00
  0.00000000E+00  0.00000000E+00  0.00000000E+00
  0.00000000E+00  0.00000000E+00  0.00000000E+00
  0.00000000E+00  0.00000000E+00  0.00000000E+00
  0.00000000E+00  0.00000000E+00  0.00000000E+00
  0.00000000E+00  0.00000000E+00  0.00000000E+00
  0.00000000E+00  0.00000000E+00  0.00000000E+00
