Graphene-B4C3 Hollow 2 with lattice para
   1.00000000000000     
     4.1932950051242512    2.4209999999999998    0.0000000000000000
    -4.1932950051242512    2.4209999999999998    0.0000000000000000
     0.0000000000000000    0.0000000000000000   15.0000000000000000
   B    C 
     4    11
Direct
  0.0043799594540152  0.0029097034777947  0.0995484296159925
  0.3595348627259565  0.0029152548885171  0.1011278319326402
  0.0043886086977307  0.3580647172380080  0.1011299495475553
  0.6492353285094572  0.6477621606392867  0.1011352519922697
  0.3280920006458038  0.3266179490927149  0.1008750097476616
  0.6806835021311960  0.0029166531974388  0.1008799830779914
  0.0043887359059754  0.6792112208883279  0.1008815137164518
  0.1664698597767656  0.3332129586444340  0.3382344268263300
  0.3331571866591063  0.1665254394565270  0.3382362013774490
  0.1665089297686781  0.8332321655021100  0.3382386482094187
  0.3331583610263941  0.6665472659718847  0.3381265187997191
  0.6664915552072166  0.3332132610698536  0.3381265186952845
  0.8331756161974450  0.1665636318511547  0.3382379578198002
  0.6664908328166950  0.8331953254628413  0.3382344258739705
  0.8331386604775725  0.6665462926191164  0.3382333327674924
 
  0.00000000E+00  0.00000000E+00  0.00000000E+00
  0.00000000E+00  0.00000000E+00  0.00000000E+00
  0.00000000E+00  0.00000000E+00  0.00000000E+00
  0.00000000E+00  0.00000000E+00  0.00000000E+00
  0.00000000E+00  0.00000000E+00  0.00000000E+00
  0.00000000E+00  0.00000000E+00  0.00000000E+00
  0.00000000E+00  0.00000000E+00  0.00000000E+00
  0.00000000E+00  0.00000000E+00  0.00000000E+00
  0.00000000E+00  0.00000000E+00  0.00000000E+00
  0.00000000E+00  0.00000000E+00  0.00000000E+00
  0.00000000E+00  0.00000000E+00  0.00000000E+00
  0.00000000E+00  0.00000000E+00  0.00000000E+00
  0.00000000E+00  0.00000000E+00  0.00000000E+00
  0.00000000E+00  0.00000000E+00  0.00000000E+00
  0.00000000E+00  0.00000000E+00  0.00000000E+00
