Graphene-B4C3 Hollow 2 with lattice para
   1.00000000000000     
     4.2002232083545259    2.4249999999999994    0.0000000000000000
    -4.2002232083545259    2.4249999999999994    0.0000000000000000
     0.0000000000000000    0.0000000000000000   15.0000000000000000
   B    C 
     4    11
Direct
  0.0043882062849066  0.0029156861990105  0.0997090232687975
  0.3595394303641501  0.0029196794058876  0.1010153871753513
  0.0043940231056173  0.3580658824383132  0.1010174069859941
  0.6492438068317331  0.6477694172751874  0.1010194994557709
  0.3280348465598732  0.3265563519745295  0.1008028203227984
  0.6807639236926800  0.0029277594436631  0.1007996944043474
  0.0044060756014127  0.6792907919167147  0.1007995366135803
  0.1664616239555636  0.3332051760114531  0.3382858169880821
  0.3331469513133389  0.1665189037191311  0.3382876399738017
  0.1665027060496559  0.8332278889401034  0.3382900143175660
  0.3331477623480538  0.6665410275023657  0.3381794196086894
  0.6664823780225531  0.3332055989038941  0.3381793033123807
  0.8331688411726748  0.1665602227098746  0.3382895036188660
  0.6664833451663124  0.8331881848355639  0.3382859799507436
  0.8331300795314819  0.6665414287243199  0.3382849540032575
 
  0.00000000E+00  0.00000000E+00  0.00000000E+00
  0.00000000E+00  0.00000000E+00  0.00000000E+00
  0.00000000E+00  0.00000000E+00  0.00000000E+00
  0.00000000E+00  0.00000000E+00  0.00000000E+00
  0.00000000E+00  0.00000000E+00  0.00000000E+00
  0.00000000E+00  0.00000000E+00  0.00000000E+00
  0.00000000E+00  0.00000000E+00  0.00000000E+00
  0.00000000E+00  0.00000000E+00  0.00000000E+00
  0.00000000E+00  0.00000000E+00  0.00000000E+00
  0.00000000E+00  0.00000000E+00  0.00000000E+00
  0.00000000E+00  0.00000000E+00  0.00000000E+00
  0.00000000E+00  0.00000000E+00  0.00000000E+00
  0.00000000E+00  0.00000000E+00  0.00000000E+00
  0.00000000E+00  0.00000000E+00  0.00000000E+00
  0.00000000E+00  0.00000000E+00  0.00000000E+00
