Graphene-B4C3 Hollow 2 with lattice para
   1.00000000000000     
     4.2002232083545259    2.4249999999999994    0.0000000000000000
    -4.2002232083545259    2.4249999999999994    0.0000000000000000
     0.0000000000000000    0.0000000000000000   15.0000000000000000
   B    C 
     4    11
Direct
  0.0042361456980543  0.0028124101980323  0.1034363228120048
  0.3589426858103152  0.0028325473781831  0.1008037052791413
  0.0042993013285114  0.3575512921826662  0.1008055093171362
  0.6495241591282579  0.6480858343211775  0.1008295850120412
  0.3280587667336685  0.3266750916850327  0.1014778254390228
  0.6803539304669272  0.0027332859756291  0.1015271754031339
  0.0041551258973066  0.6789313136216141  0.1015370487301259
  0.1665778850750466  0.3332503949217319  0.3375956149771307
  0.3332386678626192  0.1665864181920197  0.3375968048905402
  0.1666328066872872  0.8333720324479500  0.3375969945355772
  0.3332951680272781  0.6666388422178036  0.3376283762164025
  0.6666264766808419  0.3333083677028634  0.3376284714833726
  0.8333615310815551  0.1666457663672659  0.3375956650726901
  0.6666884607404072  0.8333101923847921  0.3375933379844488
  0.8333028887819308  0.6667002104032496  0.3375935628472587
 
  0.00000000E+00  0.00000000E+00  0.00000000E+00
  0.00000000E+00  0.00000000E+00  0.00000000E+00
  0.00000000E+00  0.00000000E+00  0.00000000E+00
  0.00000000E+00  0.00000000E+00  0.00000000E+00
  0.00000000E+00  0.00000000E+00  0.00000000E+00
  0.00000000E+00  0.00000000E+00  0.00000000E+00
  0.00000000E+00  0.00000000E+00  0.00000000E+00
  0.00000000E+00  0.00000000E+00  0.00000000E+00
  0.00000000E+00  0.00000000E+00  0.00000000E+00
  0.00000000E+00  0.00000000E+00  0.00000000E+00
  0.00000000E+00  0.00000000E+00  0.00000000E+00
  0.00000000E+00  0.00000000E+00  0.00000000E+00
  0.00000000E+00  0.00000000E+00  0.00000000E+00
  0.00000000E+00  0.00000000E+00  0.00000000E+00
  0.00000000E+00  0.00000000E+00  0.00000000E+00
