Graphene-B4C3 Hollow 2 with lattice para
   1.00000000000000     
     4.2002232083545259    2.4249999999999994    0.0000000000000000
    -4.2002232083545259    2.4249999999999994    0.0000000000000000
     0.0000000000000000    0.0000000000000000   15.0000000000000000
   B    C 
     4    11
Direct
  0.0041698475621767  0.0027129400191227  0.1196085108883886
  0.3563795850588710  0.0028279742582757  0.0976827817753922
  0.0042159656360374  0.3549400038902895  0.0976860082922915
  0.6519816415196992  0.6506078502777692  0.0976747499514528
  0.3262692357790754  0.3248834598495564  0.1003139264080794
  0.6821055895911931  0.0027918508365169  0.1002900699474571
  0.0041848957367849  0.6806798685619088  0.1002820004928635
  0.1666270813519802  0.3333804388870526  0.3372325281140087
  0.3333806658445975  0.1666285190361058  0.3372330803068855
  0.1667482361523216  0.8333650094578010  0.3372339829847927
  0.3333340112726443  0.6666692665824578  0.3371547361207309
  0.6666688120087707  0.3333321474936714  0.3371547276560464
  0.8333635993697789  0.1667469823471235  0.3372339164195219
  0.6666174747496997  0.8332498127252617  0.3372327355445401
  0.8332473583663769  0.6666178757770980  0.3372322450975755
 
  0.00000000E+00  0.00000000E+00  0.00000000E+00
  0.00000000E+00  0.00000000E+00  0.00000000E+00
  0.00000000E+00  0.00000000E+00  0.00000000E+00
  0.00000000E+00  0.00000000E+00  0.00000000E+00
  0.00000000E+00  0.00000000E+00  0.00000000E+00
  0.00000000E+00  0.00000000E+00  0.00000000E+00
  0.00000000E+00  0.00000000E+00  0.00000000E+00
  0.00000000E+00  0.00000000E+00  0.00000000E+00
  0.00000000E+00  0.00000000E+00  0.00000000E+00
  0.00000000E+00  0.00000000E+00  0.00000000E+00
  0.00000000E+00  0.00000000E+00  0.00000000E+00
  0.00000000E+00  0.00000000E+00  0.00000000E+00
  0.00000000E+00  0.00000000E+00  0.00000000E+00
  0.00000000E+00  0.00000000E+00  0.00000000E+00
  0.00000000E+00  0.00000000E+00  0.00000000E+00
