Graphene-BC3 Hollow with lattice paramet
   1.00000000000000     
     4.3041462568086599    2.4849999999999999    0.0000000000000000
    -4.3041462568086599    2.4849999999999999    0.0000000000000000
     0.0000000000000000    0.0000000000000000   15.0000000000000000
   B    C 
     2    14
Direct
  0.3382324238128688  0.6691160646853407  0.1007363620377172
  0.6715674084521445  0.3357833143577492  0.1004044466220639
  0.1649804291558778  0.3226120204384785  0.1004479132570372
  0.3249926689090877  0.1624959300260778  0.1004646056153635
  0.1649799917830921  0.8423670728698878  0.1004482752243697
  0.8448492937401220  0.1624948234872774  0.1004218198952724
  0.6847316690027773  0.8423652467029391  0.1004068942700836
  0.8448490133875929  0.6823538045577897  0.1004224534782938
  0.3334498098105370  0.1667248788769039  0.3251155914936656
  0.5001366791450126  0.0001246115765366  0.3250916939754754
  0.3334320187635366  0.6667159843580654  0.3248137777088605
  0.5001366860264134  0.5000117514300177  0.3250917081223635
  0.8334274179625819  0.1667258062267171  0.3251106777051538
  0.0001034650984000  0.0000515514271540  0.3250876063816350
  0.8334274228093468  0.6667015200733658  0.3251106821835552
  0.0000289354739427  0.5000142855723944  0.3250921586957615
 
  0.00000000E+00  0.00000000E+00  0.00000000E+00
  0.00000000E+00  0.00000000E+00  0.00000000E+00
  0.00000000E+00  0.00000000E+00  0.00000000E+00
  0.00000000E+00  0.00000000E+00  0.00000000E+00
  0.00000000E+00  0.00000000E+00  0.00000000E+00
  0.00000000E+00  0.00000000E+00  0.00000000E+00
  0.00000000E+00  0.00000000E+00  0.00000000E+00
  0.00000000E+00  0.00000000E+00  0.00000000E+00
  0.00000000E+00  0.00000000E+00  0.00000000E+00
  0.00000000E+00  0.00000000E+00  0.00000000E+00
  0.00000000E+00  0.00000000E+00  0.00000000E+00
  0.00000000E+00  0.00000000E+00  0.00000000E+00
  0.00000000E+00  0.00000000E+00  0.00000000E+00
  0.00000000E+00  0.00000000E+00  0.00000000E+00
  0.00000000E+00  0.00000000E+00  0.00000000E+00
  0.00000000E+00  0.00000000E+00  0.00000000E+00
