Graphene-Borophene Bridge with lattice p
   1.00000000000000     
     4.3041462568086590    2.4849999999999994    0.0000000000000000
    -4.3041462568086590    2.4849999999999994    0.0000000000000000
     0.0000000000000000    0.0000000000000000   15.0000000000000000
   B    C 
     8     8
Direct
  0.6731795514426181 -0.0045478655053432  0.1679675921166619
  0.3357883099906974 -0.0044050454227701  0.1680462332888841
  0.0045478655053432  0.3268194485573850  0.1679675921166619
  0.0044050454227701  0.6642106900093055  0.1680462332888841
  0.3355854615673576  0.3268357829955959  0.1666299598143435
  0.6731632170044068  0.6644135384326453  0.1666299598143435
  0.6707856936026136  0.3292133063973892  0.1554325974339575
  0.3374469010443344  0.6625520989556681  0.1807647645042954
  0.2456546653071257  0.2543669425116994  0.4013707837277187
  0.4123460947167745  0.0877535456855459  0.4014042295780027
  0.2455850236581970  0.7544139763418057  0.4015112771659903
  0.4122940805182830  0.5877049194817187  0.4015055848249631
  0.7456538923713804  0.2543451076286223  0.4013075056706059
  0.9123463527120435  0.0876526472879594  0.4011740066823381
  0.7456320574883031  0.7543443346928769  0.4013707837277187
  0.9122454543144562  0.5876529052832286  0.4014042295780027
 
  0.00000000E+00  0.00000000E+00  0.00000000E+00
  0.00000000E+00  0.00000000E+00  0.00000000E+00
  0.00000000E+00  0.00000000E+00  0.00000000E+00
  0.00000000E+00  0.00000000E+00  0.00000000E+00
  0.00000000E+00  0.00000000E+00  0.00000000E+00
  0.00000000E+00  0.00000000E+00  0.00000000E+00
  0.00000000E+00  0.00000000E+00  0.00000000E+00
  0.00000000E+00  0.00000000E+00  0.00000000E+00
  0.00000000E+00  0.00000000E+00  0.00000000E+00
  0.00000000E+00  0.00000000E+00  0.00000000E+00
  0.00000000E+00  0.00000000E+00  0.00000000E+00
  0.00000000E+00  0.00000000E+00  0.00000000E+00
  0.00000000E+00  0.00000000E+00  0.00000000E+00
  0.00000000E+00  0.00000000E+00  0.00000000E+00
  0.00000000E+00  0.00000000E+00  0.00000000E+00
  0.00000000E+00  0.00000000E+00  0.00000000E+00
