Graphene-B4C3 Top with lattice parameter
   1.00000000000000     
     4.1932950051242512    2.4209999999999998    0.0000000000000000
    -4.1932950051242512    2.4209999999999998    0.0000000000000000
     0.0000000000000000    0.0000000000000000   15.0000000000000000
   B    C 
     4    11
Direct
  0.0040623275867431  0.0027037337122531  0.1014555144078623
  0.3592474763816806  0.0029780374819311  0.1005468896538843
  0.0037773493708856  0.3576051702167133  0.1005476862761639
  0.6491484592042841  0.6475098979595285  0.1005438187837154
  0.3278218879279405  0.3261846313185244  0.1005795801837604
  0.6805702134203888  0.0029738549518155  0.1005786798438119
  0.0037767854429296  0.6789282291741640  0.1005757625367561
  0.0001290504411688  0.5000611358800222  0.3348395398628063
  0.1667809969791650  0.3334493954498057  0.3348751857366297
  0.0001109544571435  0.0000680213273927  0.3347987376719242
  0.1668221630617962  0.8333993999160724  0.3348790995556712
  0.5001204810412553  0.5000964789383067  0.3348424129339649
  0.6667781945870010  0.3334031056504911  0.3347365742768174
  0.5000834698436741  0.0000497560879458  0.3348378952417975
  0.6667308569206372  0.8333564852683587  0.3348752897011170
 
  0.00000000E+00  0.00000000E+00  0.00000000E+00
  0.00000000E+00  0.00000000E+00  0.00000000E+00
  0.00000000E+00  0.00000000E+00  0.00000000E+00
  0.00000000E+00  0.00000000E+00  0.00000000E+00
  0.00000000E+00  0.00000000E+00  0.00000000E+00
  0.00000000E+00  0.00000000E+00  0.00000000E+00
  0.00000000E+00  0.00000000E+00  0.00000000E+00
  0.00000000E+00  0.00000000E+00  0.00000000E+00
  0.00000000E+00  0.00000000E+00  0.00000000E+00
  0.00000000E+00  0.00000000E+00  0.00000000E+00
  0.00000000E+00  0.00000000E+00  0.00000000E+00
  0.00000000E+00  0.00000000E+00  0.00000000E+00
  0.00000000E+00  0.00000000E+00  0.00000000E+00
  0.00000000E+00  0.00000000E+00  0.00000000E+00
  0.00000000E+00  0.00000000E+00  0.00000000E+00
