Graphene-Borophene Top with lattice para
   1.00000000000000     
     4.3162706124616408    2.4919999999999995    0.0000000000000000
    -4.3162706124616408    2.4919999999999995    0.0000000000000000
     0.0000000000000000    0.0000000000000000   15.0000000000000000
   B    C 
     8     8
Direct
  0.6684944730175445  0.0000466648984511  0.1673243004461272
  0.3315511918809093  0.0000466648984511  0.1673243004461271
 -0.0000466648984511  0.3315045269824576  0.1673243004461272
 -0.0000466648984511  0.6684478081190941  0.1673243004461272
  0.3315511918809093  0.3315045269824576  0.1673243004461272
  0.6684944730175444  0.6684478081190942  0.1673243004461272
  0.6666659999999993  0.3333330000000032  0.1545200134979016
  0.3333330000000032  0.6666659999999993  0.1799534422222882
  0.1666508994105312  0.3333027988210669  0.4004743763416189
  0.3333309544109960  0.1666649772054957  0.4003790244160442
  0.1666508994105312  0.8333481005894712  0.4004743763416189
  0.3333330000000032  0.6666659999999993  0.4005175556390196
  0.6666659999999993  0.3333330000000032  0.4003696503577324
  0.8333340227945070  0.1666649772054957  0.4003790244160442
  0.6666962011789354  0.8333481005894712  0.4004743763416189
  0.8333340227945070  0.6666680455890066  0.4003790244160442
 
  0.00000000E+00  0.00000000E+00  0.00000000E+00
  0.00000000E+00  0.00000000E+00  0.00000000E+00
  0.00000000E+00  0.00000000E+00  0.00000000E+00
  0.00000000E+00  0.00000000E+00  0.00000000E+00
  0.00000000E+00  0.00000000E+00  0.00000000E+00
  0.00000000E+00  0.00000000E+00  0.00000000E+00
  0.00000000E+00  0.00000000E+00  0.00000000E+00
  0.00000000E+00  0.00000000E+00  0.00000000E+00
  0.00000000E+00  0.00000000E+00  0.00000000E+00
  0.00000000E+00  0.00000000E+00  0.00000000E+00
  0.00000000E+00  0.00000000E+00  0.00000000E+00
  0.00000000E+00  0.00000000E+00  0.00000000E+00
  0.00000000E+00  0.00000000E+00  0.00000000E+00
  0.00000000E+00  0.00000000E+00  0.00000000E+00
  0.00000000E+00  0.00000000E+00  0.00000000E+00
  0.00000000E+00  0.00000000E+00  0.00000000E+00
