Graphene-Borophene Hollow 1 with lattice
   1.00000000000000     
     4.3136725362502881    2.4904999999999999    0.0000000000000000
    -4.3136725362502881    2.4904999999999999    0.0000000000000000
     0.0000000000000000    0.0000000000000000   15.0000000000000000
   B    C 
     8     8
Direct
  0.6736587026519969 -0.0046223545256047  0.1674245394247662
  0.3350767018871391 -0.0043883967971548  0.1671494809083669
  0.0046223545256047  0.3263402973480063  0.1674245394247662
  0.0043883967971548  0.6649222981128632  0.1671494809083669
  0.3348888308166567  0.3261536709105636  0.1671718411716110
  0.6738453290894393  0.6651101691833456  0.1671718411716110
  0.6708922213751753  0.3291067786248275  0.1612501604943715
  0.3375723519667166  0.6624266480332859  0.1738880254997879
  0.2734165568438172  0.2265947699846227  0.4022686583134898
  0.4400890823982114  0.0599632272292312  0.4023009058104827
  0.2733988791185837  0.7266001208814187  0.4022613849334464
  0.4401074419076795  0.5598915580923229  0.4023432330333118
  0.7734188003079020  0.2265801996921001  0.4022716171090587
  0.9400662364167037  0.0599327635832985  0.4021547276726007
  0.7734042300153798  0.7265824431561854  0.4022686583134898
  0.9400357727707719  0.5599099176017911  0.4023009058104827
 
  0.00000000E+00  0.00000000E+00  0.00000000E+00
  0.00000000E+00  0.00000000E+00  0.00000000E+00
  0.00000000E+00  0.00000000E+00  0.00000000E+00
  0.00000000E+00  0.00000000E+00  0.00000000E+00
  0.00000000E+00  0.00000000E+00  0.00000000E+00
  0.00000000E+00  0.00000000E+00  0.00000000E+00
  0.00000000E+00  0.00000000E+00  0.00000000E+00
  0.00000000E+00  0.00000000E+00  0.00000000E+00
  0.00000000E+00  0.00000000E+00  0.00000000E+00
  0.00000000E+00  0.00000000E+00  0.00000000E+00
  0.00000000E+00  0.00000000E+00  0.00000000E+00
  0.00000000E+00  0.00000000E+00  0.00000000E+00
  0.00000000E+00  0.00000000E+00  0.00000000E+00
  0.00000000E+00  0.00000000E+00  0.00000000E+00
  0.00000000E+00  0.00000000E+00  0.00000000E+00
  0.00000000E+00  0.00000000E+00  0.00000000E+00
