Graphene-B4C3 Top with lattice parameter
   1.00000000000000     
     4.2028212845658803    2.4264999999999999    0.0000000000000000
    -4.2028212845658803    2.4264999999999999    0.0000000000000000
     0.0000000000000000    0.0000000000000000   15.0000000000000000
   B    C 
     4    11
Direct
  0.0040375925161540  0.0026843727793224  0.1010871943574329
  0.3592207253610437  0.0029707022897527  0.1004594666895423
  0.0037457566850149  0.3575787636755345  0.1004601680534830
  0.6491411556465762  0.6475024090498844  0.1004570017991569
  0.3277037278022827  0.3260672910328954  0.1004531537650874
  0.6806533808323514  0.0029665648008405  0.1004612916883980
  0.0037503637687845  0.6790189064492798  0.1004601621460628
  0.0001511643728086  0.5000714878574860  0.3349629909680637
  0.1667975604457217  0.3334610123690480  0.3349966436202153
  0.0001295597406855  0.0000795302063605  0.3349258913203099
  0.1668443135889398  0.8334146553253845  0.3350009053724946
  0.5001401133757508  0.5001134697324493  0.3349654614670733
  0.6667978791079313  0.3334147735775679  0.3348636303280995
  0.5000966970173860  0.0000578511597266  0.3349616247234895
  0.6667506764052618  0.8333655430277943  0.3349970803677735
 
  0.00000000E+00  0.00000000E+00  0.00000000E+00
  0.00000000E+00  0.00000000E+00  0.00000000E+00
  0.00000000E+00  0.00000000E+00  0.00000000E+00
  0.00000000E+00  0.00000000E+00  0.00000000E+00
  0.00000000E+00  0.00000000E+00  0.00000000E+00
  0.00000000E+00  0.00000000E+00  0.00000000E+00
  0.00000000E+00  0.00000000E+00  0.00000000E+00
  0.00000000E+00  0.00000000E+00  0.00000000E+00
  0.00000000E+00  0.00000000E+00  0.00000000E+00
  0.00000000E+00  0.00000000E+00  0.00000000E+00
  0.00000000E+00  0.00000000E+00  0.00000000E+00
  0.00000000E+00  0.00000000E+00  0.00000000E+00
  0.00000000E+00  0.00000000E+00  0.00000000E+00
  0.00000000E+00  0.00000000E+00  0.00000000E+00
  0.00000000E+00  0.00000000E+00  0.00000000E+00
