Graphene-BC3 Bridge with lattice paramet
   1.00000000000000     
     4.3561077810357256    2.5149999999999997    0.0000000000000000
    -4.3561077810357256    2.5149999999999997    0.0000000000000000
     0.0000000000000000    0.0000000000000000   15.0000000000000000
   B    C 
     2    14
Direct
  0.3275144958911287  0.6806960479508715  0.1007056481453320
  0.6608167701493455  0.3474000564672427  0.1005384293027318
  0.1537963500017633  0.3334889950091642  0.1000825976244213
  0.3133964006511666  0.1737994214046568  0.1007960854054130
  0.1538275464604527  0.8544118562976579  0.1011628440357890
  0.8343687250290157  0.1738109048632941  0.0997630179437438
  0.6747361153828106  0.8544230323190278  0.1001369689351701
  0.8344141498209698  0.6948000206104965  0.1008518187022114
  0.2608851909415931  0.2383373303274902  0.3259177447272554
  0.4275066632279085  0.0717617825283103  0.3258530312251749
  0.2608531964902224  0.7384362741632196  0.3257652357378635
  0.4275810669432785  0.5717002142159525  0.3257196679994239
  0.7608990023236315  0.2383876396204904  0.3257539814169413
  0.9275929358642534  0.0716895964952047  0.3258519037239467
  0.7609467429414634  0.7384020063673196  0.3259187317675621
  0.9275233145477003  0.5717801546929263  0.3258489599736761
 
  0.00000000E+00  0.00000000E+00  0.00000000E+00
  0.00000000E+00  0.00000000E+00  0.00000000E+00
  0.00000000E+00  0.00000000E+00  0.00000000E+00
  0.00000000E+00  0.00000000E+00  0.00000000E+00
  0.00000000E+00  0.00000000E+00  0.00000000E+00
  0.00000000E+00  0.00000000E+00  0.00000000E+00
  0.00000000E+00  0.00000000E+00  0.00000000E+00
  0.00000000E+00  0.00000000E+00  0.00000000E+00
  0.00000000E+00  0.00000000E+00  0.00000000E+00
  0.00000000E+00  0.00000000E+00  0.00000000E+00
  0.00000000E+00  0.00000000E+00  0.00000000E+00
  0.00000000E+00  0.00000000E+00  0.00000000E+00
  0.00000000E+00  0.00000000E+00  0.00000000E+00
  0.00000000E+00  0.00000000E+00  0.00000000E+00
  0.00000000E+00  0.00000000E+00  0.00000000E+00
  0.00000000E+00  0.00000000E+00  0.00000000E+00
