Graphene-BC3 Bridge with lattice paramet
   1.00000000000000     
     4.3578398318432949    2.5160000000000000    0.0000000000000000
    -4.3578398318432949    2.5160000000000000    0.0000000000000000
     0.0000000000000000    0.0000000000000000   15.0000000000000000
   B    C 
     2    14
Direct
  0.3213751631136949  0.6871663639295281  0.1008132069413509
  0.6545315812980905  0.3539514922678766  0.1005652969840414
  0.1476054970098626  0.3398585734456959  0.1002567695686053
  0.3072531191288524  0.1801561118743716  0.1007062145192391
  0.1476814978224586  0.8607552421284662  0.1009425145048816
  0.8282793915125373  0.1802553387898498  0.1000130921649214
  0.6686305847314351  0.8609228236004772  0.1002776784485775
  0.8284098628233034  0.7012583501008838  0.1007246180542279
  0.2670079378492024  0.2318981230240347  0.3258764207108087
  0.4336318666631597  0.0653128253934533  0.3258411109606281
  0.2669988431494986  0.7319899120351386  0.3255847414315636
  0.4337558120679703  0.5652323832589037  0.3257751067439529
  0.7670199554388299  0.2319606088349405  0.3257499900778861
  0.9337111240552627  0.0652745246264517  0.3258296870988267
  0.7670944658229115  0.7319830984260448  0.3258762335897932
  0.9336719641796343  0.5653495615972062  0.3258339848673525
 
  0.00000000E+00  0.00000000E+00  0.00000000E+00
  0.00000000E+00  0.00000000E+00  0.00000000E+00
  0.00000000E+00  0.00000000E+00  0.00000000E+00
  0.00000000E+00  0.00000000E+00  0.00000000E+00
  0.00000000E+00  0.00000000E+00  0.00000000E+00
  0.00000000E+00  0.00000000E+00  0.00000000E+00
  0.00000000E+00  0.00000000E+00  0.00000000E+00
  0.00000000E+00  0.00000000E+00  0.00000000E+00
  0.00000000E+00  0.00000000E+00  0.00000000E+00
  0.00000000E+00  0.00000000E+00  0.00000000E+00
  0.00000000E+00  0.00000000E+00  0.00000000E+00
  0.00000000E+00  0.00000000E+00  0.00000000E+00
  0.00000000E+00  0.00000000E+00  0.00000000E+00
  0.00000000E+00  0.00000000E+00  0.00000000E+00
  0.00000000E+00  0.00000000E+00  0.00000000E+00
  0.00000000E+00  0.00000000E+00  0.00000000E+00
