Graphene-B4C3 Top with lattice parameter
   1.00000000000000     
     4.2158116656226472    2.4340000000000002    0.0000000000000000
    -4.2158116656226472    2.4340000000000002    0.0000000000000000
     0.0000000000000000    0.0000000000000000   15.0000000000000000
   B    C 
     4    11
Direct
  0.0040502364447493  0.0026933745057332  0.1007368918098228
  0.3592320888094745  0.0030036598660292  0.1003705883060821
  0.0037344942776497  0.3575611602430173  0.1003713592244492
  0.6491767072580654  0.6475069415156617  0.1003677176829673
  0.3275764281776234  0.3259146494088513  0.1003418445882887
  0.6808184681707075  0.0029900254269165  0.1003411059483526
  0.0037342903131488  0.6791538226497149  0.1003381584707087
  0.0001396629280816  0.5000676095021708  0.3350837644053384
  0.1667896127534118  0.3334557235656221  0.3351188785117855
  0.0001214371711618  0.0000755991284907  0.3350450462563381
  0.1668324700571119  0.8334082265751944  0.3351227112503041
  0.5001320290615300  0.5001051727336465  0.3350865249764147
  0.6667880656142915  0.3334105899767116  0.3349867724550850
  0.5000926861555989  0.0000571466757931  0.3350822458552448
  0.6667419894740865  0.8333636315597716  0.3351190569255009
 
  0.00000000E+00  0.00000000E+00  0.00000000E+00
  0.00000000E+00  0.00000000E+00  0.00000000E+00
  0.00000000E+00  0.00000000E+00  0.00000000E+00
  0.00000000E+00  0.00000000E+00  0.00000000E+00
  0.00000000E+00  0.00000000E+00  0.00000000E+00
  0.00000000E+00  0.00000000E+00  0.00000000E+00
  0.00000000E+00  0.00000000E+00  0.00000000E+00
  0.00000000E+00  0.00000000E+00  0.00000000E+00
  0.00000000E+00  0.00000000E+00  0.00000000E+00
  0.00000000E+00  0.00000000E+00  0.00000000E+00
  0.00000000E+00  0.00000000E+00  0.00000000E+00
  0.00000000E+00  0.00000000E+00  0.00000000E+00
  0.00000000E+00  0.00000000E+00  0.00000000E+00
  0.00000000E+00  0.00000000E+00  0.00000000E+00
  0.00000000E+00  0.00000000E+00  0.00000000E+00
