Graphene-Borophene Bridge with lattice p
   1.00000000000000     
     4.2608449866194382    2.4600000000000000    0.0000000000000000
    -4.2608449866194382    2.4600000000000000    0.0000000000000000
     0.0000000000000000    0.0000000000000000   15.0000000000000000
   B    C 
     8     8
Direct
  0.6714272635997394 -0.0019854120825516  0.1633133073467731
  0.3325484002381278 -0.0013405607425579  0.1666203339413143
  0.0019854120825516  0.3285717364002629  0.1633133073467731
  0.0013405607425579  0.6674505997618743  0.1666203339413143
  0.3328459589424484  0.3289422344017798  0.1700716474740824
  0.6710567655982230  0.6671530410575535  0.1700716474740824
  0.6686017757974195  0.3313972242025828  0.1823547551877419
  0.3347797480293671  0.6652192519706348  0.1549984060622849
  0.2486321221183020  0.2523071727852695  0.4013372456325993
  0.4150391907622646  0.0850917637125243  0.4025161671377895
  0.2481746626454683  0.7518243373545344  0.4027176377324891
  0.4149093270030337  0.5850896729969689  0.4017265281706054
  0.7481020586102093  0.2518969413897934  0.4020998680909731
  0.9146173569947785  0.0853816430052237  0.4009187350241595
  0.7476918272147326  0.7513668778817011  0.4013372456325993
  0.9149072362874782  0.5849598092377373  0.4025161671377895
 
  0.00000000E+00  0.00000000E+00  0.00000000E+00
  0.00000000E+00  0.00000000E+00  0.00000000E+00
  0.00000000E+00  0.00000000E+00  0.00000000E+00
  0.00000000E+00  0.00000000E+00  0.00000000E+00
  0.00000000E+00  0.00000000E+00  0.00000000E+00
  0.00000000E+00  0.00000000E+00  0.00000000E+00
  0.00000000E+00  0.00000000E+00  0.00000000E+00
  0.00000000E+00  0.00000000E+00  0.00000000E+00
  0.00000000E+00  0.00000000E+00  0.00000000E+00
  0.00000000E+00  0.00000000E+00  0.00000000E+00
  0.00000000E+00  0.00000000E+00  0.00000000E+00
  0.00000000E+00  0.00000000E+00  0.00000000E+00
  0.00000000E+00  0.00000000E+00  0.00000000E+00
  0.00000000E+00  0.00000000E+00  0.00000000E+00
  0.00000000E+00  0.00000000E+00  0.00000000E+00
  0.00000000E+00  0.00000000E+00  0.00000000E+00
