Graphene-Borophene Bridge with lattice p
   1.00000000000000     
     4.3197347140767803    2.4940000000000002    0.0000000000000000
    -4.3197347140767803    2.4940000000000002    0.0000000000000000
     0.0000000000000000    0.0000000000000000   15.0000000000000000
   B    C 
     8     8
Direct
  0.6778524352408622 -0.0095701712154855  0.1671597275959970
  0.3409474409286102 -0.0094388919740008  0.1661546703039004
  0.0095701712154855  0.3221465647591398  0.1671597275959970
  0.0094388919740008  0.6590515590713927  0.1661546703039004
  0.3408685411034718  0.3222303113864043  0.1660308331478773
  0.6777686886135980  0.6591304588965305  0.1660308331478773
  0.6758523530229819  0.3241466469770203  0.1545542547743362
  0.3422892175910613  0.6577097824089412  0.1788913554658099
  0.2406769332995061  0.2592855624212747  0.4025577526266729
  0.4073163263297842  0.0926588211555734  0.4025542579785233
  0.2406660636832303  0.7593329363167728  0.4026177417499757
  0.4073560725273441  0.5926429274726588  0.4026342776891180
  0.7406684921613739  0.2593305078386286  0.4024986037159377
  0.9073344225522350  0.0926645774477669  0.4024226166322523
  0.7407134375787273  0.7593220667004958  0.4025577526266729
  0.9073401788444292  0.5926826736702182  0.4025542579785233
 
  0.00000000E+00  0.00000000E+00  0.00000000E+00
  0.00000000E+00  0.00000000E+00  0.00000000E+00
  0.00000000E+00  0.00000000E+00  0.00000000E+00
  0.00000000E+00  0.00000000E+00  0.00000000E+00
  0.00000000E+00  0.00000000E+00  0.00000000E+00
  0.00000000E+00  0.00000000E+00  0.00000000E+00
  0.00000000E+00  0.00000000E+00  0.00000000E+00
  0.00000000E+00  0.00000000E+00  0.00000000E+00
  0.00000000E+00  0.00000000E+00  0.00000000E+00
  0.00000000E+00  0.00000000E+00  0.00000000E+00
  0.00000000E+00  0.00000000E+00  0.00000000E+00
  0.00000000E+00  0.00000000E+00  0.00000000E+00
  0.00000000E+00  0.00000000E+00  0.00000000E+00
  0.00000000E+00  0.00000000E+00  0.00000000E+00
  0.00000000E+00  0.00000000E+00  0.00000000E+00
  0.00000000E+00  0.00000000E+00  0.00000000E+00
