Graphene-B4C3 Top with lattice parameter
   1.00000000000000     
     4.2054193607772321    2.4279999999999990    0.0000000000000000
    -4.2054193607772321    2.4279999999999990    0.0000000000000000
     0.0000000000000000    0.0000000000000000   15.0000000000000000
   B    C 
     4    11
Direct
  0.0040477083660859  0.0026942053100271  0.1010647215356741
  0.3592384953642889  0.0029895641702084  0.1004682601219948
  0.0037469184327366  0.3575847274118591  0.1004690417299385
  0.6491497546318760  0.6474999393518673  0.1004653489226718
  0.3276783239171621  0.3260381719588877  0.1004664513028459
  0.6806935073555896  0.0029748784822409  0.1004651619510219
  0.0037522976537376  0.6790501663600714  0.1004622393617723
  0.0001411296716726  0.5000660764796857  0.3349593234393587
  0.1667911023295169  0.3334548335988973  0.3349955729002686
  0.0001239027610716  0.0000746617957022  0.3349209405235152
  0.1668342389265245  0.8334074125800103  0.3349993680369622
  0.5001346509741939  0.5001038683414122  0.3349621019554707
  0.6667897401536382  0.3334095085087868  0.3348607426680443
  0.5000954343932796  0.0000571278577164  0.3349577266764717
  0.6667434617353193  0.8333621911259530  0.3349956655406716
 
  0.00000000E+00  0.00000000E+00  0.00000000E+00
  0.00000000E+00  0.00000000E+00  0.00000000E+00
  0.00000000E+00  0.00000000E+00  0.00000000E+00
  0.00000000E+00  0.00000000E+00  0.00000000E+00
  0.00000000E+00  0.00000000E+00  0.00000000E+00
  0.00000000E+00  0.00000000E+00  0.00000000E+00
  0.00000000E+00  0.00000000E+00  0.00000000E+00
  0.00000000E+00  0.00000000E+00  0.00000000E+00
  0.00000000E+00  0.00000000E+00  0.00000000E+00
  0.00000000E+00  0.00000000E+00  0.00000000E+00
  0.00000000E+00  0.00000000E+00  0.00000000E+00
  0.00000000E+00  0.00000000E+00  0.00000000E+00
  0.00000000E+00  0.00000000E+00  0.00000000E+00
  0.00000000E+00  0.00000000E+00  0.00000000E+00
  0.00000000E+00  0.00000000E+00  0.00000000E+00
