Borophene with lattice parameter 5.051
        1.0
        4.374294    2.525500    0.000000
       -4.374294    2.525500    0.000000
        0.000000    0.000000    15.00000
        B
        8
        Direct
        0.666666    0.000000    0.100000
        0.333333    0.000000    0.100000
        0.000000    0.333333    0.100000
        0.000000    0.666666    0.100000
        0.333333    0.333333    0.100000
        0.666666    0.666666    0.100000
        0.666666    0.333333    0.133000
        0.333333    0.666666    0.067000