Graphene-BC3 Bridge with lattice paramet
   1.00000000000000     
     4.3682321366887074    2.5219999999999994    0.0000000000000000
    -4.3682321366887074    2.5219999999999994    0.0000000000000000
     0.0000000000000000    0.0000000000000000   15.0000000000000000
   B    C 
     2    14
Direct
  0.3360811353436197  0.6715608444938396  0.0998319861270739
  0.6694131681919302  0.3382297334252499  0.0996528884009070
  0.1623769981010792  0.3242075418407205  0.0989657211802729
  0.3219191058195807  0.1645390947080999  0.1000915853767995
  0.1623029609757630  0.8453353986649064  0.1006980095816583
  0.8430938962458491  0.1645579424345523  0.0983952980522279
  0.6834394662193094  0.8452857524884382  0.0990138357969194
  0.8430914069888072  0.6857302665677931  0.1001384751830044
  0.2522432047537823  0.2474695055082791  0.3268386725088009
  0.4188545695425895  0.0808933034096846  0.3267788994470496
  0.2522237482373550  0.7476310540404729  0.3266094926603351
  0.4189858994932947  0.5808667796584561  0.3266195000479995
  0.7522845987477939  0.2475642105468651  0.3266052959342965
  0.9190067473925712  0.0808447177382127  0.3268175713076631
  0.7523823041978617  0.7476103930149753  0.3268385953764504
  0.9189594564155191  0.5809987947927769  0.3267708396851984
 
  0.00000000E+00  0.00000000E+00  0.00000000E+00
  0.00000000E+00  0.00000000E+00  0.00000000E+00
  0.00000000E+00  0.00000000E+00  0.00000000E+00
  0.00000000E+00  0.00000000E+00  0.00000000E+00
  0.00000000E+00  0.00000000E+00  0.00000000E+00
  0.00000000E+00  0.00000000E+00  0.00000000E+00
  0.00000000E+00  0.00000000E+00  0.00000000E+00
  0.00000000E+00  0.00000000E+00  0.00000000E+00
  0.00000000E+00  0.00000000E+00  0.00000000E+00
  0.00000000E+00  0.00000000E+00  0.00000000E+00
  0.00000000E+00  0.00000000E+00  0.00000000E+00
  0.00000000E+00  0.00000000E+00  0.00000000E+00
  0.00000000E+00  0.00000000E+00  0.00000000E+00
  0.00000000E+00  0.00000000E+00  0.00000000E+00
  0.00000000E+00  0.00000000E+00  0.00000000E+00
  0.00000000E+00  0.00000000E+00  0.00000000E+00
