Graphene-BC3 Bridge with lattice paramet
   1.00000000000000     
     4.3682321366887074    2.5219999999999994    0.0000000000000000
    -4.3682321366887074    2.5219999999999994    0.0000000000000000
     0.0000000000000000    0.0000000000000000   15.0000000000000000
   B    C 
     2    14
Direct
  0.3298962832981182  0.6781046730148310  0.0992528949714268
  0.6632490303916215  0.3448149519117350  0.0992868183979293
  0.1561977975892358  0.3306132309153300  0.0996572465368358
  0.3156326516107592  0.1709264970765890  0.0990005040805965
  0.1562525221145703  0.8517867767820924  0.0986128182161567
  0.8368664457746158  0.1711582424662374  0.0999795079134206
  0.6775063877528710  0.8518943168299739  0.0996107914105694
  0.8370652834025650  0.6923691822723740  0.0989568414341706
  0.2582742467037292  0.2409329059145769  0.3271813024512553
  0.4250059836525432  0.0742789441547237  0.3270574024898184
  0.2582759544172422  0.7411650883105770  0.3267619781062833
  0.4251958271461680  0.5742838515343077  0.3269724885116805
  0.7582967161954853  0.2411370078276487  0.3269550423264265
  0.9252416069869148  0.0742304261315477  0.3271579192487636
  0.7585102311476218  0.7411679379751900  0.3271785972881733
  0.9251916984826440  0.5744613002155883  0.3270445132831503
 
  0.00000000E+00  0.00000000E+00  0.00000000E+00
  0.00000000E+00  0.00000000E+00  0.00000000E+00
  0.00000000E+00  0.00000000E+00  0.00000000E+00
  0.00000000E+00  0.00000000E+00  0.00000000E+00
  0.00000000E+00  0.00000000E+00  0.00000000E+00
  0.00000000E+00  0.00000000E+00  0.00000000E+00
  0.00000000E+00  0.00000000E+00  0.00000000E+00
  0.00000000E+00  0.00000000E+00  0.00000000E+00
  0.00000000E+00  0.00000000E+00  0.00000000E+00
  0.00000000E+00  0.00000000E+00  0.00000000E+00
  0.00000000E+00  0.00000000E+00  0.00000000E+00
  0.00000000E+00  0.00000000E+00  0.00000000E+00
  0.00000000E+00  0.00000000E+00  0.00000000E+00
  0.00000000E+00  0.00000000E+00  0.00000000E+00
  0.00000000E+00  0.00000000E+00  0.00000000E+00
  0.00000000E+00  0.00000000E+00  0.00000000E+00
