Graphene-BC3 Bridge with lattice paramet
   1.00000000000000     
     4.3699641874962758    2.5229999999999992    0.0000000000000000
    -4.3699641874962758    2.5229999999999992    0.0000000000000000
     0.0000000000000000    0.0000000000000000   15.0000000000000000
   B    C 
     2    14
Direct
  0.3314041738942604  0.6765255198786690  0.0992541186291457
  0.6647341196016140  0.3432078737576233  0.0995048451333685
  0.1575805460738967  0.3289957409696191  0.0992864301873922
  0.3171794602189574  0.1693271645062220  0.0991876979765340
  0.1576567719537927  0.8502630763158348  0.0991664580680569
  0.8384779462101407  0.1694736440213033  0.0993044142070133
  0.6789827106664938  0.8503211625877495  0.0992687473304241
  0.8386786092428101  0.6907926334329235  0.0991769894623347
  0.2567902721439706  0.2425334198699939  0.3271943118216579
  0.4234989934689325  0.0758878481993907  0.3270693754015367
  0.2567869229618003  0.7427486146538613  0.3269687741301379
  0.4236780418434063  0.5758893016297815  0.3269646271078196
  0.7568161248118502  0.2427124626381592  0.3270346142293300
  0.9237185656069800  0.0758420557030161  0.3270273768109656
  0.7570032329105377  0.7427461225598783  0.3271957793243983
  0.9236721750572614  0.5760586926092972  0.3270621068465412
 
  0.00000000E+00  0.00000000E+00  0.00000000E+00
  0.00000000E+00  0.00000000E+00  0.00000000E+00
  0.00000000E+00  0.00000000E+00  0.00000000E+00
  0.00000000E+00  0.00000000E+00  0.00000000E+00
  0.00000000E+00  0.00000000E+00  0.00000000E+00
  0.00000000E+00  0.00000000E+00  0.00000000E+00
  0.00000000E+00  0.00000000E+00  0.00000000E+00
  0.00000000E+00  0.00000000E+00  0.00000000E+00
  0.00000000E+00  0.00000000E+00  0.00000000E+00
  0.00000000E+00  0.00000000E+00  0.00000000E+00
  0.00000000E+00  0.00000000E+00  0.00000000E+00
  0.00000000E+00  0.00000000E+00  0.00000000E+00
  0.00000000E+00  0.00000000E+00  0.00000000E+00
  0.00000000E+00  0.00000000E+00  0.00000000E+00
  0.00000000E+00  0.00000000E+00  0.00000000E+00
  0.00000000E+00  0.00000000E+00  0.00000000E+00
