Graphene-BC3 Bridge with lattice paramet
   1.00000000000000     
     4.3699641874962758    2.5229999999999992    0.0000000000000000
    -4.3699641874962758    2.5229999999999992    0.0000000000000000
     0.0000000000000000    0.0000000000000000   15.0000000000000000
   B    C 
     2    14
Direct
  0.3172485675833140  0.6915988765619345  0.1008720067866713
  0.6505827428859796  0.3582703383774350  0.1005592879375334
  0.1435040948152586  0.3441784418629590  0.1006296615572257
  0.3030048044317371  0.1845341416887558  0.1004555005432368
  0.1434791283364583  0.8653770971477389  0.1003549985670362
  0.8242896220964921  0.1845571854354895  0.1007067029372572
  0.6646519260596064  0.8653448225211046  0.1006107527077860
  0.8242922733968873  0.7058184458605723  0.1004333694735765
  0.2711323687784825  0.2275063595067432  0.3258356961836350
  0.4377631861093467  0.0609361393671578  0.3257930842001459
  0.2711017984797996  0.7275575195014490  0.3255406273674911
  0.4378168889765233  0.5608348144768961  0.3257343481014816
  0.7711235392571246  0.2275345019938462  0.3257392191600694
  0.9377964530674761  0.0608580065793580  0.3257798452331340
  0.7711521245376183  0.7275273703833219  0.3258342739493478
  0.9377191478546003  0.5608912720685609  0.3257872919610287
 
  0.00000000E+00  0.00000000E+00  0.00000000E+00
  0.00000000E+00  0.00000000E+00  0.00000000E+00
  0.00000000E+00  0.00000000E+00  0.00000000E+00
  0.00000000E+00  0.00000000E+00  0.00000000E+00
  0.00000000E+00  0.00000000E+00  0.00000000E+00
  0.00000000E+00  0.00000000E+00  0.00000000E+00
  0.00000000E+00  0.00000000E+00  0.00000000E+00
  0.00000000E+00  0.00000000E+00  0.00000000E+00
  0.00000000E+00  0.00000000E+00  0.00000000E+00
  0.00000000E+00  0.00000000E+00  0.00000000E+00
  0.00000000E+00  0.00000000E+00  0.00000000E+00
  0.00000000E+00  0.00000000E+00  0.00000000E+00
  0.00000000E+00  0.00000000E+00  0.00000000E+00
  0.00000000E+00  0.00000000E+00  0.00000000E+00
  0.00000000E+00  0.00000000E+00  0.00000000E+00
  0.00000000E+00  0.00000000E+00  0.00000000E+00
