Graphene-BC3 Bridge with lattice paramet
   1.00000000000000     
     4.3699641874962758    2.5229999999999992    0.0000000000000000
    -4.3699641874962758    2.5229999999999992    0.0000000000000000
     0.0000000000000000    0.0000000000000000   15.0000000000000000
   B    C 
     2    14
Direct
  0.3362051279352961  0.6714395092796470  0.0998248338347651
  0.6695115544388140  0.3381178770108340  0.0996266066282508
  0.1624457558434841  0.3240847256357111  0.0989965156320975
  0.3220181366776929  0.1644143048848141  0.1000600187811164
  0.1623790927466741  0.8452326964345459  0.1006481414417464
  0.8432240654980679  0.1644428040956789  0.0984388653438774
  0.6835489601975536  0.8452033883572942  0.0990426743596047
  0.8432189743832470  0.6856395088415906  0.1001043306530341
  0.2521284901954790  0.2475900814338004  0.3268547954527175
  0.4187643397283823  0.0809948717367655  0.3267770298435418
  0.2521109473399635  0.7477461765245170  0.3266062569338418
  0.4188926537987832  0.5809670838420601  0.3266190151273862
  0.7521704873421986  0.2476807361356922  0.3266139240691491
  0.9189106972067598  0.0809479715057300  0.3268309801721690
  0.7522643435913696  0.7477276416818973  0.3268542785445791
  0.9188650397429391  0.5810959559327448  0.3267683998487795
 
  0.00000000E+00  0.00000000E+00  0.00000000E+00
  0.00000000E+00  0.00000000E+00  0.00000000E+00
  0.00000000E+00  0.00000000E+00  0.00000000E+00
  0.00000000E+00  0.00000000E+00  0.00000000E+00
  0.00000000E+00  0.00000000E+00  0.00000000E+00
  0.00000000E+00  0.00000000E+00  0.00000000E+00
  0.00000000E+00  0.00000000E+00  0.00000000E+00
  0.00000000E+00  0.00000000E+00  0.00000000E+00
  0.00000000E+00  0.00000000E+00  0.00000000E+00
  0.00000000E+00  0.00000000E+00  0.00000000E+00
  0.00000000E+00  0.00000000E+00  0.00000000E+00
  0.00000000E+00  0.00000000E+00  0.00000000E+00
  0.00000000E+00  0.00000000E+00  0.00000000E+00
  0.00000000E+00  0.00000000E+00  0.00000000E+00
  0.00000000E+00  0.00000000E+00  0.00000000E+00
  0.00000000E+00  0.00000000E+00  0.00000000E+00
