Graphene-Borophene Hollow 2 with lattice
   1.00000000000000     
     4.3119404854427197    2.4895000000000000    0.0000000000000000
    -4.3119404854427197    2.4895000000000000    0.0000000000000000
     0.0000000000000000    0.0000000000000000   15.0000000000000000
   B    C 
     8     8
Direct
  0.6695014827923090 -0.0000670382061115  0.1669961403265602
  0.3304304790015817 -0.0000670382061115  0.1669961403265602
  0.0000670382061115  0.3304975172076930  0.1669961403265602
  0.0000670382061115  0.6695685209984208  0.1669961403265602
  0.3304304790015817  0.3304975172076929  0.1669961403265602
  0.6695014827923090  0.6695685209984208  0.1669961403265602
  0.6666659999999993  0.3333330000000032  0.1611467940436909
  0.3333330000000032  0.6666659999999993  0.1736126227950293
  0.3333490870025567  0.1666745435012854  0.4034927814337399
  0.5000220408841725  0.0000440817683442  0.4035665180204233
  0.3333326666666636  0.6666663333333389  0.4034994101697123
  0.5000220408841725  0.4999769591158301  0.4035665180204233
  0.8333244564987173  0.1666745435012854  0.4034927814337399
  0.9999996666666675  0.9999993333333350  0.4033864326697083
  0.8333244564987173  0.6666499129974452  0.4034927814337399
 -0.0000450817683416  0.4999769591158301  0.4035665180204233
 
  0.00000000E+00  0.00000000E+00  0.00000000E+00
  0.00000000E+00  0.00000000E+00  0.00000000E+00
  0.00000000E+00  0.00000000E+00  0.00000000E+00
  0.00000000E+00  0.00000000E+00  0.00000000E+00
  0.00000000E+00  0.00000000E+00  0.00000000E+00
  0.00000000E+00  0.00000000E+00  0.00000000E+00
  0.00000000E+00  0.00000000E+00  0.00000000E+00
  0.00000000E+00  0.00000000E+00  0.00000000E+00
  0.00000000E+00  0.00000000E+00  0.00000000E+00
  0.00000000E+00  0.00000000E+00  0.00000000E+00
  0.00000000E+00  0.00000000E+00  0.00000000E+00
  0.00000000E+00  0.00000000E+00  0.00000000E+00
  0.00000000E+00  0.00000000E+00  0.00000000E+00
  0.00000000E+00  0.00000000E+00  0.00000000E+00
  0.00000000E+00  0.00000000E+00  0.00000000E+00
  0.00000000E+00  0.00000000E+00  0.00000000E+00
