Graphene-B4C3 Top with lattice parameter
   1.00000000000000     
     4.2019552591620952    2.4259999999999993    0.0000000000000000
    -4.2019552591620952    2.4259999999999993    0.0000000000000000
     0.0000000000000000    0.0000000000000000   15.0000000000000000
   B    C 
     4    11
Direct
  0.0040543563847638  0.0026956815762085  0.1011970607886265
  0.3592379705832085  0.0029872735441573  0.1005347192429031
  0.0037612668578340  0.3575837166890327  0.1005354848553495
  0.6491554223033607  0.6475094411834386  0.1005317577281342
  0.3277155422701791  0.3260793774373981  0.1005378940527764
  0.6806608117446229  0.0029729156289539  0.1005369021016145
  0.0037664724323492  0.6790153734419723  0.1005341291447828
  0.0001347823725921  0.5000667146097911  0.3348911191373053
  0.1667858369293519  0.3334452179225764  0.3349273678805877
  0.0001158057961635  0.0000730374464137  0.3348527074054846
  0.1668249980453020  0.8334086054746508  0.3349311967195980
  0.5001235872042277  0.5001007507750326  0.3348939587057437
  0.6667866060722523  0.3334084243446208  0.3347913824881932
  0.5000883232710063  0.0000537161218990  0.3348895286668023
  0.6667488843994813  0.8333670871371804  0.3349274577487799
 
  0.00000000E+00  0.00000000E+00  0.00000000E+00
  0.00000000E+00  0.00000000E+00  0.00000000E+00
  0.00000000E+00  0.00000000E+00  0.00000000E+00
  0.00000000E+00  0.00000000E+00  0.00000000E+00
  0.00000000E+00  0.00000000E+00  0.00000000E+00
  0.00000000E+00  0.00000000E+00  0.00000000E+00
  0.00000000E+00  0.00000000E+00  0.00000000E+00
  0.00000000E+00  0.00000000E+00  0.00000000E+00
  0.00000000E+00  0.00000000E+00  0.00000000E+00
  0.00000000E+00  0.00000000E+00  0.00000000E+00
  0.00000000E+00  0.00000000E+00  0.00000000E+00
  0.00000000E+00  0.00000000E+00  0.00000000E+00
  0.00000000E+00  0.00000000E+00  0.00000000E+00
  0.00000000E+00  0.00000000E+00  0.00000000E+00
  0.00000000E+00  0.00000000E+00  0.00000000E+00
