Graphene-B4C3 Top with lattice parameter
   1.00000000000000     
     4.2019552591620952    2.4259999999999993    0.0000000000000000
    -4.2019552591620952    2.4259999999999993    0.0000000000000000
     0.0000000000000000    0.0000000000000000   15.0000000000000000
   B    C 
     4    11
Direct
  0.0042060105922144  0.0028942138624638  0.1072997000062536
  0.3590412631391903  0.0031419542918618  0.1004720848348687
  0.0036292815070752  0.3572656212205642  0.1004655255834939
  0.6498119339930990  0.6478104676827962  0.1004834426603521
  0.3278881165599221  0.3262455362998619  0.1011119885681564
  0.6806543780395243  0.0028608734824194  0.1011578722698886
  0.0039188492701910  0.6791251108457091  0.1011644507768428
 -0.0001314262838818  0.4999977723540961  0.3339895016301708
  0.1667879867627101  0.3334452693786210  0.3339623134118997
  0.0000128982415800  0.0000100618821072  0.3338455611235223
  0.1666888203820288  0.8332449313271780  0.3339696653609443
  0.5000325698333982  0.4998788297987183  0.3339951863447300
  0.6666834771383543  0.3333437154483187  0.3336497137616710
  0.5001494389269696  0.0001575635397921  0.3339854660321580
  0.6665870685643178  0.8333454119188174  0.3339601943017302
 
  0.00000000E+00  0.00000000E+00  0.00000000E+00
  0.00000000E+00  0.00000000E+00  0.00000000E+00
  0.00000000E+00  0.00000000E+00  0.00000000E+00
  0.00000000E+00  0.00000000E+00  0.00000000E+00
  0.00000000E+00  0.00000000E+00  0.00000000E+00
  0.00000000E+00  0.00000000E+00  0.00000000E+00
  0.00000000E+00  0.00000000E+00  0.00000000E+00
  0.00000000E+00  0.00000000E+00  0.00000000E+00
  0.00000000E+00  0.00000000E+00  0.00000000E+00
  0.00000000E+00  0.00000000E+00  0.00000000E+00
  0.00000000E+00  0.00000000E+00  0.00000000E+00
  0.00000000E+00  0.00000000E+00  0.00000000E+00
  0.00000000E+00  0.00000000E+00  0.00000000E+00
  0.00000000E+00  0.00000000E+00  0.00000000E+00
  0.00000000E+00  0.00000000E+00  0.00000000E+00
