Graphene-B4C3 Top with lattice parameter
   1.00000000000000     
     4.2019552591620952    2.4259999999999993    0.0000000000000000
    -4.2019552591620952    2.4259999999999993    0.0000000000000000
     0.0000000000000000    0.0000000000000000   15.0000000000000000
   B    C 
     4    11
Direct
  0.0041798848235616  0.0027647503885759  0.1188560878379523
  0.3568581804786997  0.0030583346250807  0.0979684778274016
  0.0039065164608529  0.3551612530337040  0.0979698253369528
  0.6517800175927764  0.6501107855171366  0.0979614154153029
  0.3265548698223753  0.3248057039285308  0.1002629231144647
  0.6821526219982701  0.0031295195511922  0.1002450719438758
  0.0038509845530322  0.6803981169960072  0.1002384647805869
 -0.0000792251862539  0.5000113501081077  0.3337580883217248
  0.1666211384505469  0.3331504765591917  0.3338106401034998
  0.9999999539360791  0.0000027677857068  0.3336313144119201
  0.1665384184881786  0.8333846294708799  0.3338141429745026
  0.4999840655300321  0.4999073051746792  0.3337615626184684
  0.6666694145157913  0.3333322398321525  0.3336670824294994
  0.5000882550901049  0.0000795132016953  0.3337574369817909
  0.6668555701126458  0.8334705871606847  0.3338101325687394
 
  0.00000000E+00  0.00000000E+00  0.00000000E+00
  0.00000000E+00  0.00000000E+00  0.00000000E+00
  0.00000000E+00  0.00000000E+00  0.00000000E+00
  0.00000000E+00  0.00000000E+00  0.00000000E+00
  0.00000000E+00  0.00000000E+00  0.00000000E+00
  0.00000000E+00  0.00000000E+00  0.00000000E+00
  0.00000000E+00  0.00000000E+00  0.00000000E+00
  0.00000000E+00  0.00000000E+00  0.00000000E+00
  0.00000000E+00  0.00000000E+00  0.00000000E+00
  0.00000000E+00  0.00000000E+00  0.00000000E+00
  0.00000000E+00  0.00000000E+00  0.00000000E+00
  0.00000000E+00  0.00000000E+00  0.00000000E+00
  0.00000000E+00  0.00000000E+00  0.00000000E+00
  0.00000000E+00  0.00000000E+00  0.00000000E+00
  0.00000000E+00  0.00000000E+00  0.00000000E+00
