Graphene-BC3 Hollow with lattice paramet
   1.00000000000000     
     4.3682321366887082    2.5219999999999998    0.0000000000000000
    -4.3682321366887082    2.5219999999999998    0.0000000000000000
     0.0000000000000000    0.0000000000000000   15.0000000000000000
   B    C 
     2    14
Direct
  0.3382318834145601  0.6691101108765726  0.1135700269678022
  0.6715679848497287  0.3357788695022945  0.1132348603064101
  0.1645113623338124  0.3216696346583472  0.1132176792454524
  0.3240456772120737  0.1620177284626568  0.1132271216118251
  0.1645096111857616  0.8428304630058265  0.1132194753523883
  0.8453231276419677  0.1620162456507632  0.1132188322215343
  0.6856677782585887  0.8428285257166206  0.1132119821163602
  0.8453212420593175  0.6832963321682187  0.1132206748810266
  0.3334550021285371  0.1667320883618696  0.3379903252528160
  0.5001448894548034  0.0001464972608789  0.3379627788671008
  0.3334322831651585  0.6667207253029239  0.3376622516278995
  0.5001450081110154  0.5000079823269149  0.3379627762066750
  0.8334262334228723  0.1667332613797297  0.3379853688290230
  0.0001038553239006  0.0000567940525651  0.3379670796500679
  0.8334261139006555  0.6667019216536245  0.3379854014555072
  0.0000132808705818  0.5000114862868872  0.3379633654081114
 
  0.00000000E+00  0.00000000E+00  0.00000000E+00
  0.00000000E+00  0.00000000E+00  0.00000000E+00
  0.00000000E+00  0.00000000E+00  0.00000000E+00
  0.00000000E+00  0.00000000E+00  0.00000000E+00
  0.00000000E+00  0.00000000E+00  0.00000000E+00
  0.00000000E+00  0.00000000E+00  0.00000000E+00
  0.00000000E+00  0.00000000E+00  0.00000000E+00
  0.00000000E+00  0.00000000E+00  0.00000000E+00
  0.00000000E+00  0.00000000E+00  0.00000000E+00
  0.00000000E+00  0.00000000E+00  0.00000000E+00
  0.00000000E+00  0.00000000E+00  0.00000000E+00
  0.00000000E+00  0.00000000E+00  0.00000000E+00
  0.00000000E+00  0.00000000E+00  0.00000000E+00
  0.00000000E+00  0.00000000E+00  0.00000000E+00
  0.00000000E+00  0.00000000E+00  0.00000000E+00
  0.00000000E+00  0.00000000E+00  0.00000000E+00
