Graphene-BC3 Top with lattice parameter 
   1.00000000000000     
     4.3994090512249455    2.5399999999999987    0.0000000000000000
    -4.3994090512249455    2.5399999999999987    0.0000000000000000
     0.0000000000000000    0.0000000000000000   15.0000000000000000
   B    C 
     2    14
Direct
  0.3384453980238936  0.6692212197624364  0.0998177046267987
  0.6717775847557196  0.3358878264308869  0.0998177339794147
  0.1645087608571839  0.3213391697739623  0.0994970521100419
  0.3238991263459325  0.1619451808660030  0.0994877103137256
  0.1645031371695212  0.8431623475332377  0.0994974884396029
  0.8457291692644235  0.1619501913129713  0.0995164411006274
  0.6863359610276096  0.8431697675020156  0.0995259672356432
  0.8457233415138133  0.6837757801191328  0.0995163548431109
  0.1664500952023638  0.3330742025067584  0.3292898171887920
  0.3330153172912609  0.1665084147857115  0.3292910431722527
  0.1664500696502969  0.8333772614735085  0.3292898241589097
  0.3332158432376882  0.6666086847456909  0.3289963473888129
  0.6665492753306989  0.3332753171343331  0.3289963451486349
  0.8333184490532589  0.1665090241868013  0.3292871885354658
  0.6667520342036074  0.8333766926265334  0.3292857857742920
  0.8333184370727472  0.6668109192400263  0.3292871959838947
 
  0.00000000E+00  0.00000000E+00  0.00000000E+00
  0.00000000E+00  0.00000000E+00  0.00000000E+00
  0.00000000E+00  0.00000000E+00  0.00000000E+00
  0.00000000E+00  0.00000000E+00  0.00000000E+00
  0.00000000E+00  0.00000000E+00  0.00000000E+00
  0.00000000E+00  0.00000000E+00  0.00000000E+00
  0.00000000E+00  0.00000000E+00  0.00000000E+00
  0.00000000E+00  0.00000000E+00  0.00000000E+00
  0.00000000E+00  0.00000000E+00  0.00000000E+00
  0.00000000E+00  0.00000000E+00  0.00000000E+00
  0.00000000E+00  0.00000000E+00  0.00000000E+00
  0.00000000E+00  0.00000000E+00  0.00000000E+00
  0.00000000E+00  0.00000000E+00  0.00000000E+00
  0.00000000E+00  0.00000000E+00  0.00000000E+00
  0.00000000E+00  0.00000000E+00  0.00000000E+00
  0.00000000E+00  0.00000000E+00  0.00000000E+00
