Graphene-B4C3 Top with lattice parameter
   1.00000000000000     
     4.1967591067393899    2.4230000000000000    0.0000000000000000
    -4.1967591067393899    2.4230000000000000    0.0000000000000000
     0.0000000000000000    0.0000000000000000   15.0000000000000000
    C
    8
Direct
  0.0001325946067144  0.5000630361044923  0.3351153309668448
  0.1667838639874838  0.3334528425916169  0.3351500116119843
  0.0001153858753551  0.0000710384020085  0.3350759302776848
  0.1668259534243676  0.8334026966236148  0.3351539062099055
  0.5001258782521530  0.5000998549242682  0.3351181103283524
  0.6667811595634316  0.3334059414239988  0.3350130992672980
  0.5000874427973172  0.0000536501085131  0.3351136758598381
  0.6667331651792656  0.8333581917733867  0.3351501006920157
