Graphene-BC3 Bridge with lattice paramet
   1.00000000000000     
     4.3682321366887082    2.5219999999999998    0.0000000000000000
    -4.3682321366887082    2.5219999999999998    0.0000000000000000
     0.0000000000000000    0.0000000000000000   15.0000000000000000
  C 
  8
Direct
  0.2715315942277602  0.2271260071459467  0.3351493941890962
  0.4381559962581461  0.0606279378492913  0.3350945897762972
  0.2715294481401033  0.7272433655763100  0.3347740266836683
  0.4382623238042540  0.5605006587742504  0.3349830494398089
  0.7715695233427288  0.2271993032790625  0.3349791784188487
  0.9382481777067945  0.0605192570665203  0.3351205830359611
  0.7716458602071250  0.7272415150273873  0.3351471498717763
  0.9381391792095374  0.5606092505022428  0.3350854551681482
