Graphene-Borophene Top with lattice para
   1.00000000000000     
     4.3050122822124441    2.4855000000000000    0.0000000000000000
    -4.3050122822124441    2.4855000000000000    0.0000000000000000
     0.0000000000000000    0.0000000000000000   15.0000000000000000
   B    C 
     8     8
Direct
  0.6685929706318471  0.0000226365368056  0.1672513925866934
  0.3314286659049610  0.0000226365368056  0.1672513925866934
 -0.0000226365368056  0.3314060293681552  0.1672513925866934
 -0.0000226365368056  0.6685703340950420  0.1672513925866934
  0.3314286659049610  0.3314060293681552  0.1672513925866934
  0.6685929706318471  0.6685703340950420  0.1672513925866934
  0.6666659999999993  0.3333330000000032  0.1538778827617245
  0.3333330000000032  0.6666659999999993  0.1806202751334543
  0.1666496169477484  0.3333002338955013  0.4005307871381719
  0.3333281307297027  0.1666635653648491  0.4004280340030873
  0.1666496169477484  0.8333493830522544  0.4005307871381719
  0.3333330000000032  0.6666659999999993  0.4005765039093394
  0.6666659999999993  0.3333330000000032  0.4004071859182368
  0.8333354346351538  0.1666635653648491  0.4004280340030873
  0.6666987661045016  0.8333493830522544  0.4005307871381719
  0.8333354346351538  0.6666708692703001  0.4004280340030873
 
  0.00000000E+00  0.00000000E+00  0.00000000E+00
  0.00000000E+00  0.00000000E+00  0.00000000E+00
  0.00000000E+00  0.00000000E+00  0.00000000E+00
  0.00000000E+00  0.00000000E+00  0.00000000E+00
  0.00000000E+00  0.00000000E+00  0.00000000E+00
  0.00000000E+00  0.00000000E+00  0.00000000E+00
  0.00000000E+00  0.00000000E+00  0.00000000E+00
  0.00000000E+00  0.00000000E+00  0.00000000E+00
  0.00000000E+00  0.00000000E+00  0.00000000E+00
  0.00000000E+00  0.00000000E+00  0.00000000E+00
  0.00000000E+00  0.00000000E+00  0.00000000E+00
  0.00000000E+00  0.00000000E+00  0.00000000E+00
  0.00000000E+00  0.00000000E+00  0.00000000E+00
  0.00000000E+00  0.00000000E+00  0.00000000E+00
  0.00000000E+00  0.00000000E+00  0.00000000E+00
  0.00000000E+00  0.00000000E+00  0.00000000E+00
