Graphene-Borophene Bridge with lattice p
   1.00000000000000     
     4.3180026632692110    2.4929999999999999    0.0000000000000000
    -4.3180026632692110    2.4929999999999999    0.0000000000000000
     0.0000000000000000    0.0000000000000000   15.0000000000000000
   B    C 
     8     8
Direct
  0.6754189121620742 -0.0066236579411195  0.1688752014905286
  0.3383874389755126 -0.0065884723630305  0.1692068997593346
  0.0066236579411195  0.3245800878379285  0.1688752014905286
  0.0065884723630305  0.6616115610244901  0.1692068997593346
  0.3381146217075120  0.3244377546286208  0.1684445547886063
  0.6755612453713817  0.6618843782924899  0.1684445547886064
  0.6730055002053881  0.3269934997946142  0.1560193902308033
  0.3398494942847817  0.6601495057152208  0.1799867046802145
  0.2433109612941647  0.2566808787730279  0.4004271384924775
  0.4099822899856453  0.0900555878449481  0.4004278625991577
  0.2432989089126502  0.7567000910873527  0.4004608796945301
  0.4099910586763003  0.5900079413237018  0.4005109123043387
  0.7432961184463975  0.2567028815536050  0.4004425588853177
  0.9099694529587161  0.0900295470412862  0.4003495732779571
  0.7433181212269749  0.7566880387058377  0.4004271384924775
  0.9099434121550546  0.5900167100143566  0.4004278625991577
 
  0.00000000E+00  0.00000000E+00  0.00000000E+00
  0.00000000E+00  0.00000000E+00  0.00000000E+00
  0.00000000E+00  0.00000000E+00  0.00000000E+00
  0.00000000E+00  0.00000000E+00  0.00000000E+00
  0.00000000E+00  0.00000000E+00  0.00000000E+00
  0.00000000E+00  0.00000000E+00  0.00000000E+00
  0.00000000E+00  0.00000000E+00  0.00000000E+00
  0.00000000E+00  0.00000000E+00  0.00000000E+00
  0.00000000E+00  0.00000000E+00  0.00000000E+00
  0.00000000E+00  0.00000000E+00  0.00000000E+00
  0.00000000E+00  0.00000000E+00  0.00000000E+00
  0.00000000E+00  0.00000000E+00  0.00000000E+00
  0.00000000E+00  0.00000000E+00  0.00000000E+00
  0.00000000E+00  0.00000000E+00  0.00000000E+00
  0.00000000E+00  0.00000000E+00  0.00000000E+00
  0.00000000E+00  0.00000000E+00  0.00000000E+00
