Graphene-BC3 Bridge with lattice paramet
   1.00000000000000     
     4.3595718826508634    2.5169999999999999    0.0000000000000000
    -4.3595718826508634    2.5169999999999999    0.0000000000000000
     0.0000000000000000    0.0000000000000000   15.0000000000000000
   B    C 
     2    14
Direct
  0.3354149525661544  0.6722546867181576  0.0998709759828819
  0.6687790943752621  0.3388983286151945  0.0998042659065191
  0.1617377566201344  0.3250133968244908  0.0987829127382921
  0.3213894802192346  0.1652960192737317  0.1003006580098236
  0.1616935308514665  0.8459842421243631  0.1010667835391307
  0.8423868365666546  0.1652842278691987  0.0980831010154950
  0.6826548957794294  0.8459209048331366  0.0988443083752890
  0.8423982472676644  0.6862948652524518  0.1003638954967686
  0.2529110124214159  0.2467672778695580  0.3267636781167311
  0.4194976409683634  0.0802116007574835  0.3267604391539579
  0.2528882876544661  0.7469390227950572  0.3266231865029240
  0.4196300040544584  0.5801910519846558  0.3265936411621573
  0.7529482515485680  0.2468738047459670  0.3265640980864131
  0.9196628342897615  0.0801567354700330  0.3267239541132775
  0.7530563627861304  0.7469148717333234  0.3267657332036467
  0.9196094786975412  0.5803242964665215  0.3267550352633496
 
  0.00000000E+00  0.00000000E+00  0.00000000E+00
  0.00000000E+00  0.00000000E+00  0.00000000E+00
  0.00000000E+00  0.00000000E+00  0.00000000E+00
  0.00000000E+00  0.00000000E+00  0.00000000E+00
  0.00000000E+00  0.00000000E+00  0.00000000E+00
  0.00000000E+00  0.00000000E+00  0.00000000E+00
  0.00000000E+00  0.00000000E+00  0.00000000E+00
  0.00000000E+00  0.00000000E+00  0.00000000E+00
  0.00000000E+00  0.00000000E+00  0.00000000E+00
  0.00000000E+00  0.00000000E+00  0.00000000E+00
  0.00000000E+00  0.00000000E+00  0.00000000E+00
  0.00000000E+00  0.00000000E+00  0.00000000E+00
  0.00000000E+00  0.00000000E+00  0.00000000E+00
  0.00000000E+00  0.00000000E+00  0.00000000E+00
  0.00000000E+00  0.00000000E+00  0.00000000E+00
  0.00000000E+00  0.00000000E+00  0.00000000E+00
