Graphene-Borophene Hollow 1 with lattice
   1.00000000000000     
     4.3474475269978816    2.5099999999999998    0.0000000000000000
    -4.3474475269978816    2.5099999999999998    0.0000000000000000
     0.0000000000000000    0.0000000000000000   15.0000000000000000
   B    C 
     8     8
Direct
  0.6695298921270182 -0.0000116083401678  0.1617690067359278
  0.3307629097026797  0.0000944923709071  0.1619178217657347
  0.0000116083401678  0.3304691078729844  0.1617690067359278
 -0.0000944923709072  0.6692360902973230  0.1619178217657347
  0.3308408327471785  0.3307300335916951  0.1619862699701232
  0.6692689664083072  0.6691581672528241  0.1619862699701233
  0.6666276495715714  0.3333713504284312  0.1805895531011530
  0.3332867976438441  0.6667122023561585  0.1585516239637635
  0.2815737138218237  0.2255681453340864  0.4063020388047961
  0.4459744048554040  0.0538022031991902  0.4052810712550389
  0.2777794784070185  0.7222195215929842  0.4045319846760517
  0.4436158980622139  0.5563831019377885  0.4056251828016559
  0.7751389154096671  0.2248600845903354  0.4060108632741828
  0.9439376626962164  0.0560613373037863  0.4069783751199615
  0.7744308546659163  0.7184252861781789  0.4063020388047961
  0.9461967968008124  0.5540245951445986  0.4052810712550389
 
  0.00000000E+00  0.00000000E+00  0.00000000E+00
  0.00000000E+00  0.00000000E+00  0.00000000E+00
  0.00000000E+00  0.00000000E+00  0.00000000E+00
  0.00000000E+00  0.00000000E+00  0.00000000E+00
  0.00000000E+00  0.00000000E+00  0.00000000E+00
  0.00000000E+00  0.00000000E+00  0.00000000E+00
  0.00000000E+00  0.00000000E+00  0.00000000E+00
  0.00000000E+00  0.00000000E+00  0.00000000E+00
  0.00000000E+00  0.00000000E+00  0.00000000E+00
  0.00000000E+00  0.00000000E+00  0.00000000E+00
  0.00000000E+00  0.00000000E+00  0.00000000E+00
  0.00000000E+00  0.00000000E+00  0.00000000E+00
  0.00000000E+00  0.00000000E+00  0.00000000E+00
  0.00000000E+00  0.00000000E+00  0.00000000E+00
  0.00000000E+00  0.00000000E+00  0.00000000E+00
  0.00000000E+00  0.00000000E+00  0.00000000E+00
