Graphene-Borophene Top with lattice para
   1.00000000000000     
     4.3102084346351512    2.4885000000000002    0.0000000000000000
    -4.3102084346351512    2.4885000000000002    0.0000000000000000
     0.0000000000000000    0.0000000000000000   15.0000000000000000
   B    C 
     8     8
Direct
  0.6685388263674846  0.0000246755853944  0.1672350993267169
  0.3314848492179128  0.0000246755853944  0.1672350993267169
 -0.0000246755853944  0.3314601736325178  0.1672350993267169
 -0.0000246755853944  0.6685141507820903  0.1672350993267169
  0.3314848492179128  0.3314601736325178  0.1672350993267169
  0.6685388263674846  0.6685141507820903  0.1672350993267169
  0.6666659999999993  0.3333330000000032  0.1540996598818039
  0.3333330000000032  0.6666659999999993  0.1802506038634589
  0.1666510164543011  0.3333030329086069  0.4005554609404853
  0.3333296349421387  0.1666643174710671  0.4004605977498719
  0.1666510164543012  0.8333479835457014  0.4005554609404853
  0.3333330000000032  0.6666659999999993  0.4006145546276813
  0.6666659999999993  0.3333330000000032  0.4004430762623765
  0.8333346825289357  0.1666643174710671  0.4004605977498719
  0.6666959670913957  0.8333479835457014  0.4005554609404853
  0.8333346825289357  0.6666693650578636  0.4004605977498719
 
  0.00000000E+00  0.00000000E+00  0.00000000E+00
  0.00000000E+00  0.00000000E+00  0.00000000E+00
  0.00000000E+00  0.00000000E+00  0.00000000E+00
  0.00000000E+00  0.00000000E+00  0.00000000E+00
  0.00000000E+00  0.00000000E+00  0.00000000E+00
  0.00000000E+00  0.00000000E+00  0.00000000E+00
  0.00000000E+00  0.00000000E+00  0.00000000E+00
  0.00000000E+00  0.00000000E+00  0.00000000E+00
  0.00000000E+00  0.00000000E+00  0.00000000E+00
  0.00000000E+00  0.00000000E+00  0.00000000E+00
  0.00000000E+00  0.00000000E+00  0.00000000E+00
  0.00000000E+00  0.00000000E+00  0.00000000E+00
  0.00000000E+00  0.00000000E+00  0.00000000E+00
  0.00000000E+00  0.00000000E+00  0.00000000E+00
  0.00000000E+00  0.00000000E+00  0.00000000E+00
  0.00000000E+00  0.00000000E+00  0.00000000E+00
