Graphene-Borophene Hollow 1 with lattice
   1.00000000000000     
     4.3084763838275819    2.4874999999999998    0.0000000000000000
    -4.3084763838275819    2.4874999999999998    0.0000000000000000
     0.0000000000000000    0.0000000000000000   15.0000000000000000
   B    C 
     8     8
Direct
  0.6729386965896785 -0.0040832898182580  0.1676705813969642
  0.3353501618712865 -0.0039091652339441  0.1676576889951411
  0.0040832898182580  0.3270603034103238  0.1676705813969642
  0.0039091652339441  0.6646488381287156  0.1676576889951411
  0.3351458637809399  0.3270409697552510  0.1667412648332513
  0.6729580302447511  0.6648531362190621  0.1667412648332513
  0.6704642527843734  0.3295347472156294  0.1551669536302397
  0.3370985526615195  0.6629004473384832  0.1791032369593070
  0.2737513929626146  0.2261926365691636  0.4022870839731647
  0.4404753710832616  0.0595735502505507  0.4023126327218082
  0.2737823760540173  0.7262166239459850  0.4023323779028198
  0.4404726817615308  0.5595263182384715  0.4024013000314450
  0.7737732168562553  0.2262257831437473  0.4022665801655153
  0.9404470240062098  0.0595519759937928  0.4021910474700239
  0.7738063634308384  0.7262476070373880  0.4022870839731647
  0.9404254497494519  0.5595236289167411  0.4023126327218082
 
  0.00000000E+00  0.00000000E+00  0.00000000E+00
  0.00000000E+00  0.00000000E+00  0.00000000E+00
  0.00000000E+00  0.00000000E+00  0.00000000E+00
  0.00000000E+00  0.00000000E+00  0.00000000E+00
  0.00000000E+00  0.00000000E+00  0.00000000E+00
  0.00000000E+00  0.00000000E+00  0.00000000E+00
  0.00000000E+00  0.00000000E+00  0.00000000E+00
  0.00000000E+00  0.00000000E+00  0.00000000E+00
  0.00000000E+00  0.00000000E+00  0.00000000E+00
  0.00000000E+00  0.00000000E+00  0.00000000E+00
  0.00000000E+00  0.00000000E+00  0.00000000E+00
  0.00000000E+00  0.00000000E+00  0.00000000E+00
  0.00000000E+00  0.00000000E+00  0.00000000E+00
  0.00000000E+00  0.00000000E+00  0.00000000E+00
  0.00000000E+00  0.00000000E+00  0.00000000E+00
  0.00000000E+00  0.00000000E+00  0.00000000E+00
