Graphene-B4C3 Hollow 2 with lattice para
   1.00000000000000     
     4.1837687256826230    2.4155000000000002    0.0000000000000000
    -4.1837687256826230    2.4155000000000002    0.0000000000000000
     0.0000000000000000    0.0000000000000000   15.0000000000000000
   B    C 
     4    11
Direct
  0.0043784012982113  0.0029053703010787  0.0993537577701689
  0.3595267043039171  0.0029150895286460  0.1013127916211554
  0.0043906889451095  0.3580571964674751  0.1013149249391740
  0.6492431192256228  0.6477677616147627  0.1013185719010713
  0.3281932066163488  0.3267199723352208  0.1010178304495779
  0.6805821889818411  0.0029111315519493  0.1010167614999068
  0.0043843145205885  0.6791089512195129  0.1010170668604544
  0.1664709552216467  0.3332113029540847  0.3381381588749567
  0.3331546071959683  0.1665268133026970  0.3381399647754902
  0.1665095472699478  0.8332351480344893  0.3381424024408218
  0.3331567567078459  0.6665482894921653  0.3380284156310221
  0.6664908293693821  0.3332130345971823  0.3380284147997172
  0.8331776970475355  0.1665656762175196  0.3381417829850559
  0.6664934609207307  0.8331979306393451  0.3381381688258772
  0.8331415223753104  0.6665503317438821  0.3381369866255771
 
  0.00000000E+00  0.00000000E+00  0.00000000E+00
  0.00000000E+00  0.00000000E+00  0.00000000E+00
  0.00000000E+00  0.00000000E+00  0.00000000E+00
  0.00000000E+00  0.00000000E+00  0.00000000E+00
  0.00000000E+00  0.00000000E+00  0.00000000E+00
  0.00000000E+00  0.00000000E+00  0.00000000E+00
  0.00000000E+00  0.00000000E+00  0.00000000E+00
  0.00000000E+00  0.00000000E+00  0.00000000E+00
  0.00000000E+00  0.00000000E+00  0.00000000E+00
  0.00000000E+00  0.00000000E+00  0.00000000E+00
  0.00000000E+00  0.00000000E+00  0.00000000E+00
  0.00000000E+00  0.00000000E+00  0.00000000E+00
  0.00000000E+00  0.00000000E+00  0.00000000E+00
  0.00000000E+00  0.00000000E+00  0.00000000E+00
  0.00000000E+00  0.00000000E+00  0.00000000E+00
