Graphene-B4C3 Hollow 2 with lattice para
   1.00000000000000     
     4.1993571829507426    2.4245000000000001    0.0000000000000000
    -4.1993571829507426    2.4245000000000001    0.0000000000000000
     0.0000000000000000    0.0000000000000000   15.0000000000000000
   B    C 
     4    11
Direct
  0.0042981709135717  0.0028639914973509  0.0999346784123647
  0.3594305363226259  0.0028530528548955  0.1012904089659061
  0.0042983803210999  0.3579872930822551  0.1012921233242129
  0.6491569183650611  0.6477132499059808  0.1012965053544536
  0.3279286530636684  0.3264818897350339  0.1010430260803663
  0.6806584532004291  0.0028596887529076  0.1010665237794485
  0.0043031108858295  0.6792089183972871  0.1010711162156849
  0.1665435274869675  0.3332534077048883  0.3380541772453775
  0.3332220306189706  0.1665716757266550  0.3380556923800729
  0.1665876680188473  0.8332964316678217  0.3380589362387736
  0.3332318965952307  0.6665992561789008  0.3379574944045218
  0.6665671285541459  0.3332636439838042  0.3379574791200271
  0.8332643317672852  0.1666184192130871  0.3380581960712152
  0.6665796352651671  0.8332522147433554  0.3380552304061806
  0.8332235586211089  0.6666108665557875  0.3380544120014210
 
  0.00000000E+00  0.00000000E+00  0.00000000E+00
  0.00000000E+00  0.00000000E+00  0.00000000E+00
  0.00000000E+00  0.00000000E+00  0.00000000E+00
  0.00000000E+00  0.00000000E+00  0.00000000E+00
  0.00000000E+00  0.00000000E+00  0.00000000E+00
  0.00000000E+00  0.00000000E+00  0.00000000E+00
  0.00000000E+00  0.00000000E+00  0.00000000E+00
  0.00000000E+00  0.00000000E+00  0.00000000E+00
  0.00000000E+00  0.00000000E+00  0.00000000E+00
  0.00000000E+00  0.00000000E+00  0.00000000E+00
  0.00000000E+00  0.00000000E+00  0.00000000E+00
  0.00000000E+00  0.00000000E+00  0.00000000E+00
  0.00000000E+00  0.00000000E+00  0.00000000E+00
  0.00000000E+00  0.00000000E+00  0.00000000E+00
  0.00000000E+00  0.00000000E+00  0.00000000E+00
