Graphene-Borophene Hollow 2 with lattice
   1.00000000000000     
     4.3474475269978798    2.5099999999999989    0.0000000000000000
    -4.3474475269978798    2.5099999999999989    0.0000000000000000
     0.0000000000000000    0.0000000000000000   15.0000000000000000
   B    C 
     8     8
Direct
  0.6691790446169235 -0.0000456420218071  0.1666201427388601
  0.3307743133612726 -0.0000456420218071  0.1666201427388601
  0.0000456420218071  0.3308199553830792  0.1666201427388601
  0.0000456420218071  0.6692246866387308  0.1666201427388601
  0.3307743133612726  0.3308199553830792  0.1666201427388601
  0.6691790446169233  0.6692246866387310  0.1666201427388601
  0.6666659999999993  0.3333330000000032  0.1646747182833571
  0.3333330000000032  0.6666659999999993  0.1689304494189495
  0.3333481133317389  0.1666740566658766  0.4039257157250808
  0.5000199588283696  0.0000399176567388  0.4039856909168306
  0.3333326666666636  0.6666663333333389  0.4039234794016832
  0.5000199588283696  0.4999790411716330  0.4039856909168306
  0.8333249433341259  0.1666740566658766  0.4039257157250808
  0.9999996666666675  0.9999993333333350  0.4038162765371068
  0.8333249433341259  0.6666508866682640  0.4039257157250808
 -0.0000409176567363  0.4999790411716330  0.4039856909168306
 
  0.00000000E+00  0.00000000E+00  0.00000000E+00
  0.00000000E+00  0.00000000E+00  0.00000000E+00
  0.00000000E+00  0.00000000E+00  0.00000000E+00
  0.00000000E+00  0.00000000E+00  0.00000000E+00
  0.00000000E+00  0.00000000E+00  0.00000000E+00
  0.00000000E+00  0.00000000E+00  0.00000000E+00
  0.00000000E+00  0.00000000E+00  0.00000000E+00
  0.00000000E+00  0.00000000E+00  0.00000000E+00
  0.00000000E+00  0.00000000E+00  0.00000000E+00
  0.00000000E+00  0.00000000E+00  0.00000000E+00
  0.00000000E+00  0.00000000E+00  0.00000000E+00
  0.00000000E+00  0.00000000E+00  0.00000000E+00
  0.00000000E+00  0.00000000E+00  0.00000000E+00
  0.00000000E+00  0.00000000E+00  0.00000000E+00
  0.00000000E+00  0.00000000E+00  0.00000000E+00
  0.00000000E+00  0.00000000E+00  0.00000000E+00
