Graphene-B4C3 Hollow 2 with lattice para
   1.00000000000000     
     4.1958930813356048    2.4224999999999999    0.0000000000000000
    -4.1958930813356048    2.4224999999999999    0.0000000000000000
     0.0000000000000000    0.0000000000000000   15.0000000000000000
   B    C 
     4    11
Direct
  0.0043894039313459  0.0029167141464219  0.0996320674937969
  0.3595399102973279  0.0029212709386698  0.1010827103501925
  0.0043969182859408  0.3580695025772611  0.1010848829281872
  0.6492435816648983  0.6477679114161239  0.1010892141740453
  0.3280808715646240  0.3266039867174706  0.1008507943224134
  0.6807204761149326  0.0029243290032966  0.1008508744859074
  0.0043992664674137  0.6792446071088059  0.1008512444978333
  0.1664592720958511  0.3332031458870935  0.3382514415183815
  0.3331456414681821  0.1665175194268141  0.3382531963388909
  0.1664992460859523  0.8332270059517158  0.3382555412812181
  0.3331501365245404  0.6665416190920103  0.3381438489955649
  0.6664837292979667  0.3332067060543735  0.3381438358721151
  0.8331686503734724  0.1665561537751527  0.3382549081208861
  0.6664859648751298  0.8331897860390246  0.3382512702914764
  0.8331309309524298  0.6665437418657777  0.3382501693291172
 
  0.00000000E+00  0.00000000E+00  0.00000000E+00
  0.00000000E+00  0.00000000E+00  0.00000000E+00
  0.00000000E+00  0.00000000E+00  0.00000000E+00
  0.00000000E+00  0.00000000E+00  0.00000000E+00
  0.00000000E+00  0.00000000E+00  0.00000000E+00
  0.00000000E+00  0.00000000E+00  0.00000000E+00
  0.00000000E+00  0.00000000E+00  0.00000000E+00
  0.00000000E+00  0.00000000E+00  0.00000000E+00
  0.00000000E+00  0.00000000E+00  0.00000000E+00
  0.00000000E+00  0.00000000E+00  0.00000000E+00
  0.00000000E+00  0.00000000E+00  0.00000000E+00
  0.00000000E+00  0.00000000E+00  0.00000000E+00
  0.00000000E+00  0.00000000E+00  0.00000000E+00
  0.00000000E+00  0.00000000E+00  0.00000000E+00
  0.00000000E+00  0.00000000E+00  0.00000000E+00
