Graphene-Borophene Hollow 1 with lattice
   1.00000000000000     
     4.3145385616540723    2.4909999999999997    0.0000000000000000
    -4.3145385616540723    2.4909999999999997    0.0000000000000000
     0.0000000000000000    0.0000000000000000   15.0000000000000000
   B    C 
     8     8
Direct
  0.6697606356606208 -0.0000089410464044  0.1095847149135373
  0.3302820887572542  0.0000134449919159  0.1096037841327862
  0.0000089410464044  0.3302383643393816  0.1095847149135373
 -0.0000134449919159  0.6697169112427485  0.1096037841327862
  0.3302990162940171  0.3302943532086790  0.1096136537325875
  0.6697046467913232  0.6696999837059855  0.1096136537325875
  0.6666586348292864  0.3333403651707160  0.1087754458144641
  0.3333264982449856  0.6666725017550171  0.1122769820538443
  0.2790337606181648  0.2236482125080493  0.4598551018134863
  0.4452207851124614  0.0547387018440208  0.4596802496161284
  0.2776046543830705  0.7223943456169324  0.4595509070597624
  0.4443319675994272  0.5556670324005756  0.4597411696019830
  0.7766228465548471  0.2233761534451552  0.4598052115169296
  0.9444297723410499  0.0555692276589527  0.4599752755359749
  0.7763507874919533  0.7209652393818377  0.4598551018134863
  0.9452602981559816  0.5547782148875412  0.4596802496161284
 
  0.00000000E+00  0.00000000E+00  0.00000000E+00
  0.00000000E+00  0.00000000E+00  0.00000000E+00
  0.00000000E+00  0.00000000E+00  0.00000000E+00
  0.00000000E+00  0.00000000E+00  0.00000000E+00
  0.00000000E+00  0.00000000E+00  0.00000000E+00
  0.00000000E+00  0.00000000E+00  0.00000000E+00
  0.00000000E+00  0.00000000E+00  0.00000000E+00
  0.00000000E+00  0.00000000E+00  0.00000000E+00
  0.00000000E+00  0.00000000E+00  0.00000000E+00
  0.00000000E+00  0.00000000E+00  0.00000000E+00
  0.00000000E+00  0.00000000E+00  0.00000000E+00
  0.00000000E+00  0.00000000E+00  0.00000000E+00
  0.00000000E+00  0.00000000E+00  0.00000000E+00
  0.00000000E+00  0.00000000E+00  0.00000000E+00
  0.00000000E+00  0.00000000E+00  0.00000000E+00
  0.00000000E+00  0.00000000E+00  0.00000000E+00
