Graphene-Borophene Hollow 1 with lattice
   1.00000000000000     
     4.3145385616540723    2.4909999999999997    0.0000000000000000
    -4.3145385616540723    2.4909999999999997    0.0000000000000000
     0.0000000000000000    0.0000000000000000   15.0000000000000000
   B    C 
     8     8
Direct
  0.6698200984322381 -0.0001038741392738  0.1584503139493519
  0.3303319078531199 -0.0000049220291463  0.1585649662142644
  0.0001038741392738  0.3301789015677642  0.1584503139493519
  0.0000049220291463  0.6696670921468827  0.1585649662142644
  0.3304115008265001  0.3304331866237462  0.1586237211025730
  0.6695658133762560  0.6695874991735025  0.1586237211025730
  0.6666495083703288  0.3333494916296736  0.1574001596100753
  0.3332924593053386  0.6667065406946642  0.1707998606179768
  0.2810604325376773  0.2250949438583232  0.4101548952537493
  0.4457778810444165  0.0541022156033392  0.4091736864254853
  0.2778067083529168  0.7221922916470861  0.4084530998444030
  0.4437444170695031  0.5562545829304997  0.4095107315367522
  0.7755262374149935  0.2244727625850089  0.4098759380576433
  0.9439852875988803  0.0560137124011222  0.4108250444423114
  0.7749040561416795  0.7189385674623252  0.4101548952537493
  0.9458967843966631  0.5542211189555861  0.4091736864254853
 
  0.00000000E+00  0.00000000E+00  0.00000000E+00
  0.00000000E+00  0.00000000E+00  0.00000000E+00
  0.00000000E+00  0.00000000E+00  0.00000000E+00
  0.00000000E+00  0.00000000E+00  0.00000000E+00
  0.00000000E+00  0.00000000E+00  0.00000000E+00
  0.00000000E+00  0.00000000E+00  0.00000000E+00
  0.00000000E+00  0.00000000E+00  0.00000000E+00
  0.00000000E+00  0.00000000E+00  0.00000000E+00
  0.00000000E+00  0.00000000E+00  0.00000000E+00
  0.00000000E+00  0.00000000E+00  0.00000000E+00
  0.00000000E+00  0.00000000E+00  0.00000000E+00
  0.00000000E+00  0.00000000E+00  0.00000000E+00
  0.00000000E+00  0.00000000E+00  0.00000000E+00
  0.00000000E+00  0.00000000E+00  0.00000000E+00
  0.00000000E+00  0.00000000E+00  0.00000000E+00
  0.00000000E+00  0.00000000E+00  0.00000000E+00
