Graphene-Borophene Hollow 1 with lattice
   1.00000000000000     
     4.3145385616540723    2.4909999999999997    0.0000000000000000
    -4.3145385616540723    2.4909999999999997    0.0000000000000000
     0.0000000000000000    0.0000000000000000   15.0000000000000000
   B    C 
     8     8
Direct
  0.6708840307495518 -0.0015807623904278  0.1667115154351201
  0.3320710579616335 -0.0015275595808521  0.1666984927448963
  0.0015807623904278  0.3291149692504510  0.1667115154351201
  0.0015275595808521  0.6679279420383689  0.1666984927448963
  0.3318852742651003  0.3289507233328581  0.1665860118383668
  0.6710482766671437  0.6681137257349020  0.1665860118383668
  0.6679555172724992  0.3320434827275034  0.1605963975090894
  0.3347430405314423  0.6652559594685605  0.1734720217206417
  0.2763503022645778  0.2237126257854808  0.4028364806660765
  0.4430125972332477  0.0570661721963159  0.4028664779842905
  0.2763117438346346  0.7236872561653687  0.4028287881084652
  0.4430251918903358  0.5569738081096677  0.4029187929067443
  0.7762944104122556  0.2237045895877465  0.4028356225608178
  0.9429729218170221  0.0570260781829805  0.4027504198567504
  0.7762863742145224  0.7236486977354252  0.4028364806660765
  0.9429328278036865  0.5569864027667546  0.4028664779842905
 
  0.00000000E+00  0.00000000E+00  0.00000000E+00
  0.00000000E+00  0.00000000E+00  0.00000000E+00
  0.00000000E+00  0.00000000E+00  0.00000000E+00
  0.00000000E+00  0.00000000E+00  0.00000000E+00
  0.00000000E+00  0.00000000E+00  0.00000000E+00
  0.00000000E+00  0.00000000E+00  0.00000000E+00
  0.00000000E+00  0.00000000E+00  0.00000000E+00
  0.00000000E+00  0.00000000E+00  0.00000000E+00
  0.00000000E+00  0.00000000E+00  0.00000000E+00
  0.00000000E+00  0.00000000E+00  0.00000000E+00
  0.00000000E+00  0.00000000E+00  0.00000000E+00
  0.00000000E+00  0.00000000E+00  0.00000000E+00
  0.00000000E+00  0.00000000E+00  0.00000000E+00
  0.00000000E+00  0.00000000E+00  0.00000000E+00
  0.00000000E+00  0.00000000E+00  0.00000000E+00
  0.00000000E+00  0.00000000E+00  0.00000000E+00
