Graphene-B4C3 Hollow 2 with lattice para
   1.00000000000000     
     4.1136206679760834    2.3750000000000000    0.0000000000000000
    -4.1136206679760834    2.3750000000000000    0.0000000000000000
     0.0000000000000000    0.0000000000000000   15.0000000000000000
   B    C 
     4    11
Direct
  0.0044580544851216  0.0029509137103268  0.1126415261029421
  0.3586107493765679  0.0029573649508386  0.0982332111092389
  0.0044634627829076  0.3571047040272612  0.0982354603124014
  0.6503110817545446  0.6488035285177540  0.0982382526277267
  0.3285213483033854  0.3270126638174635  0.0999212851271806
  0.6804097552298680  0.0029559154036666  0.0999239848695797
  0.0044640716517875  0.6789045869330731  0.0999225312042064
  0.1664116699762325  0.3331844500081611  0.3380559798097307
  0.3330984538877554  0.1664976137683966  0.3380578224448091
  0.1664432231109381  0.8331875711601029  0.3380602375795029
  0.3330903154847767  0.6665106158201445  0.3378923441957117
  0.6664240733368770  0.3331758123042400  0.3378923441373932
  0.8331009774059387  0.1665288279178562  0.3380598040202241
  0.6664155324398002  0.8331576864817769  0.3380563024956217
  0.8330712307735068  0.6665017451789478  0.3380549139637576
 
  0.00000000E+00  0.00000000E+00  0.00000000E+00
  0.00000000E+00  0.00000000E+00  0.00000000E+00
  0.00000000E+00  0.00000000E+00  0.00000000E+00
  0.00000000E+00  0.00000000E+00  0.00000000E+00
  0.00000000E+00  0.00000000E+00  0.00000000E+00
  0.00000000E+00  0.00000000E+00  0.00000000E+00
  0.00000000E+00  0.00000000E+00  0.00000000E+00
  0.00000000E+00  0.00000000E+00  0.00000000E+00
  0.00000000E+00  0.00000000E+00  0.00000000E+00
  0.00000000E+00  0.00000000E+00  0.00000000E+00
  0.00000000E+00  0.00000000E+00  0.00000000E+00
  0.00000000E+00  0.00000000E+00  0.00000000E+00
  0.00000000E+00  0.00000000E+00  0.00000000E+00
  0.00000000E+00  0.00000000E+00  0.00000000E+00
  0.00000000E+00  0.00000000E+00  0.00000000E+00
