Graphene-B4C3 Top with lattice parameter
   1.00000000000000     
     4.1742424462409931    2.4099999999999993    0.0000000000000000
    -4.1742424462409931    2.4099999999999993    0.0000000000000000
     0.0000000000000000    0.0000000000000000   15.0000000000000000
   B    C 
     4    11
Direct
  0.0040412592969334  0.0026904214172359  0.1043839914957204
  0.3591337106955965  0.0029340912578124  0.1000146956416179
  0.0037860528885642  0.3575315098040480  0.1000153568796242
  0.6491866017755304  0.6475881217872872  0.1000119233508981
  0.3279439599923523  0.3263386256180570  0.1004582772649667
  0.6803804819433239  0.0029388049019868  0.1004575238388121
  0.0037822045635849  0.6787717880729911  0.1004547500759647
  0.0001482472824600  0.5000740374539948  0.3347189808859395
  0.1668044018472472  0.3334674047825181  0.3347565432819026
  0.0001288257170755  0.0000789754064726  0.3346756357148628
  0.1668443328655944  0.8334071220812742  0.3347604454086649
  0.5001365998814343  0.5001073198788571  0.3347218886007443
  0.6667977339055770  0.3334140945714008  0.3346087158220971
  0.5001022088661117  0.0000600985215408  0.3347174663445344
  0.6667440451453090  0.8333649177778489  0.3347564720603327
 
  0.00000000E+00  0.00000000E+00  0.00000000E+00
  0.00000000E+00  0.00000000E+00  0.00000000E+00
  0.00000000E+00  0.00000000E+00  0.00000000E+00
  0.00000000E+00  0.00000000E+00  0.00000000E+00
  0.00000000E+00  0.00000000E+00  0.00000000E+00
  0.00000000E+00  0.00000000E+00  0.00000000E+00
  0.00000000E+00  0.00000000E+00  0.00000000E+00
  0.00000000E+00  0.00000000E+00  0.00000000E+00
  0.00000000E+00  0.00000000E+00  0.00000000E+00
  0.00000000E+00  0.00000000E+00  0.00000000E+00
  0.00000000E+00  0.00000000E+00  0.00000000E+00
  0.00000000E+00  0.00000000E+00  0.00000000E+00
  0.00000000E+00  0.00000000E+00  0.00000000E+00
  0.00000000E+00  0.00000000E+00  0.00000000E+00
  0.00000000E+00  0.00000000E+00  0.00000000E+00
