Graphene-B4C3 Hollow 2 with lattice para
   1.00000000000000     
     4.2140796148150779    2.4329999999999998    0.0000000000000000
    -4.2140796148150779    2.4329999999999998    0.0000000000000000
     0.0000000000000000    0.0000000000000000   15.0000000000000000
   B    C 
     4    11
Direct
  0.0044105913990156  0.0029302428219105  0.0996999557228879
  0.3595576019797915  0.0029374769059060  0.1007715678962647
  0.0044207966415827  0.3580783578390005  0.1007736132384544
  0.6492747857938423  0.6477913748340032  0.1007775517667420
  0.3279050601062777  0.3264219432439026  0.1005861026754253
  0.6809344308807533  0.0029378862581715  0.1005894951643944
  0.0044215283300788  0.6794528474811419  0.1005905292443303
  0.1664391136099866  0.3331913433733815  0.3384570220609836
  0.3331272283037935  0.1665037600970891  0.3384587418875137
  0.1664818500332197  0.8332149102992743  0.3384610988399165
  0.3331303482655982  0.6665290870043220  0.3383535045366570
  0.6664644791037364  0.3331935213440037  0.3383535091487290
  0.8331499823412599  0.1665454610980523  0.3384604298223753
  0.6664654642358019  0.8331758808648948  0.3384569747361396
  0.8331107389752687  0.6665299065349587  0.3384559032592129
 
  0.00000000E+00  0.00000000E+00  0.00000000E+00
  0.00000000E+00  0.00000000E+00  0.00000000E+00
  0.00000000E+00  0.00000000E+00  0.00000000E+00
  0.00000000E+00  0.00000000E+00  0.00000000E+00
  0.00000000E+00  0.00000000E+00  0.00000000E+00
  0.00000000E+00  0.00000000E+00  0.00000000E+00
  0.00000000E+00  0.00000000E+00  0.00000000E+00
  0.00000000E+00  0.00000000E+00  0.00000000E+00
  0.00000000E+00  0.00000000E+00  0.00000000E+00
  0.00000000E+00  0.00000000E+00  0.00000000E+00
  0.00000000E+00  0.00000000E+00  0.00000000E+00
  0.00000000E+00  0.00000000E+00  0.00000000E+00
  0.00000000E+00  0.00000000E+00  0.00000000E+00
  0.00000000E+00  0.00000000E+00  0.00000000E+00
  0.00000000E+00  0.00000000E+00  0.00000000E+00
