Graphene-B4C3 Hollow 1 with lattice para
   1.00000000000000     
     4.1958930813356048    2.4224999999999999    0.0000000000000000
    -4.1958930813356048    2.4224999999999999    0.0000000000000000
     0.0000000000000000    0.0000000000000000   15.0000000000000000
   B    C 
     4    11
Direct
  0.0449967544683593 -0.0338668848117212  0.0971133384524211
  0.4003544359413641 -0.0337047541901000  0.0997256837012341
  0.0449745331310353  0.3211864607861104  0.1000806563093957
  0.6902846640676622  0.6110142420739982  0.0999875609504347
  0.3690260991778517  0.2896349306492509  0.0994358308748628
  0.7218106539370576 -0.0335356374912007  0.0996295183184114
  0.0447007258734176  0.6423267549719226  0.0994794541016317
  0.0752805873672815  0.4209693814920237  0.3394896243404728
  0.2418987619800656  0.2541786493117279  0.3396530701782423
  0.0752961831621159  0.9210208362446058  0.3395647900279434
  0.2420237114424582  0.7543208792910573  0.3395391041152310
  0.5752667572195648  0.4209818290303844  0.3395303079935457
  0.7419164580560353  0.2543080296901985  0.3394288942928203
  0.5751391460428366  0.9208113612601698  0.3395497368983082
  0.7418800836884457  0.7542323661360391  0.3395717627783658
 
  0.00000000E+00  0.00000000E+00  0.00000000E+00
  0.00000000E+00  0.00000000E+00  0.00000000E+00
  0.00000000E+00  0.00000000E+00  0.00000000E+00
  0.00000000E+00  0.00000000E+00  0.00000000E+00
  0.00000000E+00  0.00000000E+00  0.00000000E+00
  0.00000000E+00  0.00000000E+00  0.00000000E+00
  0.00000000E+00  0.00000000E+00  0.00000000E+00
  0.00000000E+00  0.00000000E+00  0.00000000E+00
  0.00000000E+00  0.00000000E+00  0.00000000E+00
  0.00000000E+00  0.00000000E+00  0.00000000E+00
  0.00000000E+00  0.00000000E+00  0.00000000E+00
  0.00000000E+00  0.00000000E+00  0.00000000E+00
  0.00000000E+00  0.00000000E+00  0.00000000E+00
  0.00000000E+00  0.00000000E+00  0.00000000E+00
  0.00000000E+00  0.00000000E+00  0.00000000E+00
