Graphene-BC3 Hollow with lattice paramet
   1.00000000000000     
     4.3613039334584327    2.5179999999999998    0.0000000000000000
    -4.3613039334584327    2.5179999999999998    0.0000000000000000
     0.0000000000000000    0.0000000000000000   15.0000000000000000
   B    C 
     2    14
Direct
  0.3382482345945615  0.6691223343443226  0.1004972728591784
  0.6715842411595679  0.3357902345773421  0.1001831708251605
  0.1645878036645913  0.3218027858230792  0.1001927627350064
  0.3241857762287464  0.1620919796167182  0.1002023971553038
  0.1645879378993619  0.8427821347347512  0.1001928593214362
  0.8452757496885485  0.1620896909718684  0.1001896162523774
  0.6855617188875821  0.8427797817585089  0.1001801624113210
  0.8452759357864990  0.6831830156415902  0.1001896970409629
  0.3334364540111385  0.1667190762851005  0.3253564648169521
  0.5001238886754735  0.0001262505344662  0.3253319102002714
  0.3334177314357739  0.6667097078230951  0.3250505245393863
  0.5001238928667242  0.4999998118628475  0.3253319179916621
  0.8334129346041447  0.1667203185651369  0.3253517970991272
  0.0000867012561965  0.0000444300442055  0.3253318464529874
  0.8334129273156785  0.6666943121674395  0.3253517983203353
  0.0000034052587452  0.5000028019162216  0.3253324686452043
 
  0.00000000E+00  0.00000000E+00  0.00000000E+00
  0.00000000E+00  0.00000000E+00  0.00000000E+00
  0.00000000E+00  0.00000000E+00  0.00000000E+00
  0.00000000E+00  0.00000000E+00  0.00000000E+00
  0.00000000E+00  0.00000000E+00  0.00000000E+00
  0.00000000E+00  0.00000000E+00  0.00000000E+00
  0.00000000E+00  0.00000000E+00  0.00000000E+00
  0.00000000E+00  0.00000000E+00  0.00000000E+00
  0.00000000E+00  0.00000000E+00  0.00000000E+00
  0.00000000E+00  0.00000000E+00  0.00000000E+00
  0.00000000E+00  0.00000000E+00  0.00000000E+00
  0.00000000E+00  0.00000000E+00  0.00000000E+00
  0.00000000E+00  0.00000000E+00  0.00000000E+00
  0.00000000E+00  0.00000000E+00  0.00000000E+00
  0.00000000E+00  0.00000000E+00  0.00000000E+00
  0.00000000E+00  0.00000000E+00  0.00000000E+00
