Graphene-Borophene Top with lattice para
   1.00000000000000     
     4.3110744600389355    2.4889999999999999    0.0000000000000000
    -4.3110744600389355    2.4889999999999999    0.0000000000000000
     0.0000000000000000    0.0000000000000000   15.0000000000000000
   B    C 
     8     8
Direct
  0.6685375074385961 -0.0000188657118053  0.1670018083759564
  0.3314426268496016 -0.0000188657118053  0.1670018083759564
  0.0000188657118053  0.3314614925614067  0.1670018083759564
  0.0000188657118053  0.6685563731504010  0.1670018083759564
  0.3314426268496016  0.3314614925614067  0.1670018083759564
  0.6685375074385961  0.6685563731504010  0.1670018083759564
  0.6666659999999993  0.3333330000000032  0.1542564483302823
  0.3333330000000032  0.6666659999999993  0.1797641713068595
  0.1666441036833463  0.3332892073666971  0.4007685402778305
  0.3333149308290197  0.1666569654145076  0.4006723351237585
  0.1666441036833463  0.8333548963166565  0.4007685402778305
  0.3333330000000032  0.6666659999999993  0.4008409895612540
  0.6666659999999993  0.3333330000000032  0.4006715810077904
  0.8333420345854947  0.1666569654145076  0.4006723351237585
  0.6667097926333051  0.8333548963166565  0.4007685402778305
  0.8333420345854947  0.6666840691709830  0.4006723351237585
 
  0.00000000E+00  0.00000000E+00  0.00000000E+00
  0.00000000E+00  0.00000000E+00  0.00000000E+00
  0.00000000E+00  0.00000000E+00  0.00000000E+00
  0.00000000E+00  0.00000000E+00  0.00000000E+00
  0.00000000E+00  0.00000000E+00  0.00000000E+00
  0.00000000E+00  0.00000000E+00  0.00000000E+00
  0.00000000E+00  0.00000000E+00  0.00000000E+00
  0.00000000E+00  0.00000000E+00  0.00000000E+00
  0.00000000E+00  0.00000000E+00  0.00000000E+00
  0.00000000E+00  0.00000000E+00  0.00000000E+00
  0.00000000E+00  0.00000000E+00  0.00000000E+00
  0.00000000E+00  0.00000000E+00  0.00000000E+00
  0.00000000E+00  0.00000000E+00  0.00000000E+00
  0.00000000E+00  0.00000000E+00  0.00000000E+00
  0.00000000E+00  0.00000000E+00  0.00000000E+00
  0.00000000E+00  0.00000000E+00  0.00000000E+00
