Graphene-Borophene Top with lattice para
   1.00000000000000     
     4.3110744600389355    2.4889999999999999    0.0000000000000000
    -4.3110744600389355    2.4889999999999999    0.0000000000000000
     0.0000000000000000    0.0000000000000000   15.0000000000000000
   B    C 
     8     8
Direct
  0.6695821685896752 -0.0001784524700120  0.1667664062255542
  0.3302383789403155 -0.0001784524700120  0.1667664062255542
  0.0001784524700120  0.3304168314103274  0.1667664062255542
  0.0001784524700120  0.6697606210596869  0.1667664062255542
  0.3302383789403154  0.3304168314103274  0.1667664062255542
  0.6695821685896752  0.6697606210596869  0.1667664062255542
  0.6666659999999993  0.3333330000000032  0.1635412161766747
  0.3333330000000032  0.6666659999999993  0.1823419403139439
  0.1695419604335763  0.3390849208671572  0.3993869607945848
  0.3389291229773791  0.1694640614886873  0.3994314106046205
  0.1695419604335763  0.8304570395664261  0.3993869607945848
  0.3333330000000032  0.6666659999999993  0.3993930008795133
  0.6666659999999993  0.3333330000000032  0.3995369577456189
  0.8305349385113153  0.1694640614886873  0.3994314106046205
  0.6609140791328452  0.8304570395664261  0.3993869607945848
  0.8305349385113153  0.6610698770226235  0.3994314106046205
 
  0.00000000E+00  0.00000000E+00  0.00000000E+00
  0.00000000E+00  0.00000000E+00  0.00000000E+00
  0.00000000E+00  0.00000000E+00  0.00000000E+00
  0.00000000E+00  0.00000000E+00  0.00000000E+00
  0.00000000E+00  0.00000000E+00  0.00000000E+00
  0.00000000E+00  0.00000000E+00  0.00000000E+00
  0.00000000E+00  0.00000000E+00  0.00000000E+00
  0.00000000E+00  0.00000000E+00  0.00000000E+00
  0.00000000E+00  0.00000000E+00  0.00000000E+00
  0.00000000E+00  0.00000000E+00  0.00000000E+00
  0.00000000E+00  0.00000000E+00  0.00000000E+00
  0.00000000E+00  0.00000000E+00  0.00000000E+00
  0.00000000E+00  0.00000000E+00  0.00000000E+00
  0.00000000E+00  0.00000000E+00  0.00000000E+00
  0.00000000E+00  0.00000000E+00  0.00000000E+00
  0.00000000E+00  0.00000000E+00  0.00000000E+00
