Graphene-B4C3 Top with lattice parameter
   1.00000000000000     
     4.1932950051242512    2.4209999999999998    0.0000000000000000
    -4.1932950051242512    2.4209999999999998    0.0000000000000000
     0.0000000000000000    0.0000000000000000   15.0000000000000000
   B    C 
     4    11
Direct
  0.0042020823324631  0.0028727698343710  0.1070529855005867
  0.3589219048367261  0.0030115357495973  0.1004602718167711
  0.0038221215673818  0.3572812129027160  0.1004546952942469
  0.6497548223192761  0.6479494158171617  0.1004703108418099
  0.3278697325894631  0.3263870597027027  0.1011983611995811
  0.6805094527580653  0.0027374319782179  0.1012430940821395
  0.0040530389195522  0.6790940802671517  0.1012490006897504
  0.0000916153920408  0.4999838482551989  0.3339725876198246
  0.1666230169549698  0.3333705542561194  0.3339611627146285
  0.0000283595263911  0.0000130850476458  0.3338763599239081
  0.1667618062510021  0.8334016253868340  0.3339672714323090
  0.5000592903571057  0.5001112078839385  0.3339768943854035
  0.6666805371149805  0.3333456808201115  0.3337015658615726
  0.4999298495005680 -0.0000526742877821  0.3339687275799020
  0.6666530362467076  0.8332604997193412  0.3339593777242489
 
  0.00000000E+00  0.00000000E+00  0.00000000E+00
  0.00000000E+00  0.00000000E+00  0.00000000E+00
  0.00000000E+00  0.00000000E+00  0.00000000E+00
  0.00000000E+00  0.00000000E+00  0.00000000E+00
  0.00000000E+00  0.00000000E+00  0.00000000E+00
  0.00000000E+00  0.00000000E+00  0.00000000E+00
  0.00000000E+00  0.00000000E+00  0.00000000E+00
  0.00000000E+00  0.00000000E+00  0.00000000E+00
  0.00000000E+00  0.00000000E+00  0.00000000E+00
  0.00000000E+00  0.00000000E+00  0.00000000E+00
  0.00000000E+00  0.00000000E+00  0.00000000E+00
  0.00000000E+00  0.00000000E+00  0.00000000E+00
  0.00000000E+00  0.00000000E+00  0.00000000E+00
  0.00000000E+00  0.00000000E+00  0.00000000E+00
  0.00000000E+00  0.00000000E+00  0.00000000E+00
