Graphene-B4C3 Top with lattice parameter
   1.00000000000000     
     4.1932950051242512    2.4209999999999998    0.0000000000000000
    -4.1932950051242512    2.4209999999999998    0.0000000000000000
     0.0000000000000000    0.0000000000000000   15.0000000000000000
   B    C 
     4    11
Direct
  0.0041802879449040  0.0027660603389439  0.1189451611427695
  0.3568886942515537  0.0030517546466704  0.0979432028787336
  0.0039115211152530  0.3551979176262364  0.0979445986413067
  0.6517438162544873  0.6500795910715607  0.0979360801737098
  0.3266576490595779  0.3249139881068656  0.1002625387948624
  0.6820438166277899  0.0031233612111909  0.1002444104049341
  0.0038571609293352  0.6802957339991095  0.1002377085998150
 -0.0000814826007583  0.5000095461525512  0.3337569369542280
  0.1666224537961611  0.3331543105479935  0.3338091440236431
  0.9999999842208764  0.0000027861156457  0.3336284886638312
  0.1665409890291106  0.8333833342641900  0.3338126447724334
  0.4999859638393219  0.4999069504638731  0.3337604144422201
  0.6666694028064269  0.3333322253074697  0.3336663770482599
  0.5000887634654120  0.0000817853264774  0.3337562970915392
  0.6668516459272413  0.8334679881545475  0.3338086630343965
 
  0.00000000E+00  0.00000000E+00  0.00000000E+00
  0.00000000E+00  0.00000000E+00  0.00000000E+00
  0.00000000E+00  0.00000000E+00  0.00000000E+00
  0.00000000E+00  0.00000000E+00  0.00000000E+00
  0.00000000E+00  0.00000000E+00  0.00000000E+00
  0.00000000E+00  0.00000000E+00  0.00000000E+00
  0.00000000E+00  0.00000000E+00  0.00000000E+00
  0.00000000E+00  0.00000000E+00  0.00000000E+00
  0.00000000E+00  0.00000000E+00  0.00000000E+00
  0.00000000E+00  0.00000000E+00  0.00000000E+00
  0.00000000E+00  0.00000000E+00  0.00000000E+00
  0.00000000E+00  0.00000000E+00  0.00000000E+00
  0.00000000E+00  0.00000000E+00  0.00000000E+00
  0.00000000E+00  0.00000000E+00  0.00000000E+00
  0.00000000E+00  0.00000000E+00  0.00000000E+00
