Graphene-Borophene Hollow_2 with lattice
   1.00000000000000     
     4.3119404854427197    2.4895000000000000    0.0000000000000000
    -4.3119404854427197    2.4895000000000000    0.0000000000000000
     0.0000000000000000    0.0000000000000000   15.0000000000000000
   B    C 
     8     8
Direct
  0.6695253946083072 -0.0000515484523403  0.0998559711349278
  0.3304220569393554 -0.0000515484523403  0.0998559711349278
  0.0000515484523403  0.3304736053916956  0.0998559711349278
  0.0000515484523403  0.6695769430606475  0.0998559711349278
  0.3304220569393554  0.3304736053916956  0.0998559711349278
  0.6695253946083072  0.6695769430606475  0.0998559711349278
  0.6666659999999993  0.3333330000000032  0.0941176830835597
  0.3333330000000032  0.6666659999999993  0.1062017849856921
  0.3333531712639671  0.1666765856319906  0.3364520929796815
  0.5000215959329876  0.0000431918659750  0.3365300077428167
  0.3333326666666636  0.6666663333333389  0.3364678162218858
  0.5000215959329876  0.4999774040670151  0.3365300077428167
  0.8333224143680117  0.1666765856319906  0.3364520929796815
  0.9999996666666675  0.9999993333333350  0.3363305867317934
  0.8333224143680117  0.6666458287360355  0.3364520929796815
 -0.0000441918659724  0.4999774040670151  0.3365300077428167
 
  0.00000000E+00  0.00000000E+00  0.00000000E+00
  0.00000000E+00  0.00000000E+00  0.00000000E+00
  0.00000000E+00  0.00000000E+00  0.00000000E+00
  0.00000000E+00  0.00000000E+00  0.00000000E+00
  0.00000000E+00  0.00000000E+00  0.00000000E+00
  0.00000000E+00  0.00000000E+00  0.00000000E+00
  0.00000000E+00  0.00000000E+00  0.00000000E+00
  0.00000000E+00  0.00000000E+00  0.00000000E+00
  0.00000000E+00  0.00000000E+00  0.00000000E+00
  0.00000000E+00  0.00000000E+00  0.00000000E+00
  0.00000000E+00  0.00000000E+00  0.00000000E+00
  0.00000000E+00  0.00000000E+00  0.00000000E+00
  0.00000000E+00  0.00000000E+00  0.00000000E+00
  0.00000000E+00  0.00000000E+00  0.00000000E+00
  0.00000000E+00  0.00000000E+00  0.00000000E+00
  0.00000000E+00  0.00000000E+00  0.00000000E+00
