Graphene-B4C3 Bridge with lattice parame
   1.00000000000000     
     4.2028212845658803    2.4264999999999999    0.0000000000000000
    -4.2028212845658803    2.4264999999999999    0.0000000000000000
     0.0000000000000000    0.0000000000000000   15.0000000000000000
   B    C 
     4    11
Direct
  0.0059374526114118  0.0010974185865673  0.1001596337957112
  0.3610604029952953  0.0010904156687971  0.1014565491223504
  0.0059362972563797  0.3561042919470535  0.1015192206231110
  0.6510621483065516  0.6459153322852202  0.1015032433676731
  0.3297263816875819  0.3245245541338825  0.1012146752033866
  0.6825421410089172  0.0011633702586273  0.1013021369641599
  0.0059786142718597  0.6774433019283387  0.1012592479142882
  0.0817325994467681  0.4181780038420390  0.3370809117460289
  0.2483755447971430  0.2514923260119585  0.3372073644708817
  0.0817432520485861  0.9182126789147026  0.3371160002425362
  0.2484281397099095  0.7515466442546993  0.3370935201051671
  0.5817037692688990  0.4181782726848602  0.3370815297657752
  0.7483672420458419  0.2515050673979186  0.3370851556583262
  0.5816810435081579  0.9181455475182894  0.3371944523465010
  0.7483523043700189  0.7515034412337418  0.3371056920074393
 
  0.00000000E+00  0.00000000E+00  0.00000000E+00
  0.00000000E+00  0.00000000E+00  0.00000000E+00
  0.00000000E+00  0.00000000E+00  0.00000000E+00
  0.00000000E+00  0.00000000E+00  0.00000000E+00
  0.00000000E+00  0.00000000E+00  0.00000000E+00
  0.00000000E+00  0.00000000E+00  0.00000000E+00
  0.00000000E+00  0.00000000E+00  0.00000000E+00
  0.00000000E+00  0.00000000E+00  0.00000000E+00
  0.00000000E+00  0.00000000E+00  0.00000000E+00
  0.00000000E+00  0.00000000E+00  0.00000000E+00
  0.00000000E+00  0.00000000E+00  0.00000000E+00
  0.00000000E+00  0.00000000E+00  0.00000000E+00
  0.00000000E+00  0.00000000E+00  0.00000000E+00
  0.00000000E+00  0.00000000E+00  0.00000000E+00
  0.00000000E+00  0.00000000E+00  0.00000000E+00
