Graphene-B4C3 Bridge with lattice parame
   1.00000000000000     
     4.2028212845658803    2.4264999999999999    0.0000000000000000
    -4.2028212845658803    2.4264999999999999    0.0000000000000000
     0.0000000000000000    0.0000000000000000   15.0000000000000000
   B    C 
     4    11
Direct
  0.0059629293270969  0.0010868378771200  0.1001653016885346
  0.3610901515025455  0.0010566438449698  0.1014546468560524
  0.0059781078962620  0.3561032379077697  0.1015119550412598
  0.6510887064482714  0.6458670592172070  0.1014979317526783
  0.3297463449725360  0.3244914617788450  0.1012089883703050
  0.6825698294532669  0.0011212321069493  0.1012987942143134
  0.0060056759446660  0.6774241974798186  0.1012538846886154
  0.0817049026665725  0.4182027996496510  0.3370830913994220
  0.2483520942954810  0.2515150051184868  0.3372107399993117
  0.0817170080538445  0.9182386782647353  0.3371183553492751
  0.2484046046948038  0.7515663110391053  0.3370972503296268
  0.5816782810858913  0.4182028362434494  0.3370839760367627
  0.7483443149647211  0.2515262955907892  0.3370886150100724
  0.5816560809378690  0.9181737613875091  0.3371964642491615
  0.7483283010894937  0.7515243091602904  0.3371093383479449
 
  0.00000000E+00  0.00000000E+00  0.00000000E+00
  0.00000000E+00  0.00000000E+00  0.00000000E+00
  0.00000000E+00  0.00000000E+00  0.00000000E+00
  0.00000000E+00  0.00000000E+00  0.00000000E+00
  0.00000000E+00  0.00000000E+00  0.00000000E+00
  0.00000000E+00  0.00000000E+00  0.00000000E+00
  0.00000000E+00  0.00000000E+00  0.00000000E+00
  0.00000000E+00  0.00000000E+00  0.00000000E+00
  0.00000000E+00  0.00000000E+00  0.00000000E+00
  0.00000000E+00  0.00000000E+00  0.00000000E+00
  0.00000000E+00  0.00000000E+00  0.00000000E+00
  0.00000000E+00  0.00000000E+00  0.00000000E+00
  0.00000000E+00  0.00000000E+00  0.00000000E+00
  0.00000000E+00  0.00000000E+00  0.00000000E+00
  0.00000000E+00  0.00000000E+00  0.00000000E+00
