BC3 with lattice parameter 5.169        
   1.00000000000000     
     4.4764850000000003    2.5844999999999998    0.0000000000000000
    -4.4764850000000003    2.5844999999999998    0.0000000000000000
     0.0000000000000000    0.0000000000000000   15.0000000000000000
   B    C 
     2     6
Direct
  0.3383342240887331  0.6691650842625193  0.2500000000000000
  0.6716663029291425  0.3358318881042007  0.2500000000000000
  0.1637461510584034  0.3199999100187510  0.2500000000000000
  0.3224999296778073  0.1612502920842109  0.2500000000000000
  0.1637542551441364  0.8437488117817104  0.2500000000000000
  0.8462442042755386  0.1612509443298535  0.2500000000000000
  0.6874995690786757  0.8437500954263135  0.2500000000000000
  0.8462513637475649  0.6849989739924397  0.2500000000000000
 
  0.00000000E+00  0.00000000E+00  0.00000000E+00
  0.00000000E+00  0.00000000E+00  0.00000000E+00
  0.00000000E+00  0.00000000E+00  0.00000000E+00
  0.00000000E+00  0.00000000E+00  0.00000000E+00
  0.00000000E+00  0.00000000E+00  0.00000000E+00
  0.00000000E+00  0.00000000E+00  0.00000000E+00
  0.00000000E+00  0.00000000E+00  0.00000000E+00
  0.00000000E+00  0.00000000E+00  0.00000000E+00
