Graphene-Borophene Bridge with lattice p
   1.00000000000000     
     4.3128065108465030    2.4899999999999993    0.0000000000000000
    -4.3128065108465030    2.4899999999999993    0.0000000000000000
     0.0000000000000000    0.0000000000000000   15.0000000000000000
   B    C 
     8     8
Direct
  0.6737531488449967 -0.0052024335887018  0.1667238489053773
  0.3365184852359261 -0.0050315969501554  0.1673662258126564
  0.0052024335887018  0.3262458511550058  0.1667238489053773
  0.0050315969501554  0.6634805147640757  0.1673662258126564
  0.3363604263857113  0.3260996221718865  0.1658520733948294
  0.6738993778281162  0.6636385736142915  0.1658520733948294
  0.6715524795852609  0.3284465204147418  0.1543663982872450
  0.3383666587838535  0.6616323412161488  0.1789154376039262
  0.2449542323989496  0.2550878426302626  0.4022848210818929
  0.4115813760227946  0.0884363991088786  0.4025301926945051
  0.2449236667673411  0.7550753332326612  0.4026234273771685
  0.4116024126087118  0.5883965873912899  0.4023777386718768
  0.7448981695974632  0.2551008304025390  0.4025572066049192
  0.9115414438078571  0.0884575561921459  0.4021788010097151
  0.7449111573697407  0.7550447676010527  0.4022848210818929
  0.9115626008911240  0.5884176239772076  0.4025301926945051
 
  0.00000000E+00  0.00000000E+00  0.00000000E+00
  0.00000000E+00  0.00000000E+00  0.00000000E+00
  0.00000000E+00  0.00000000E+00  0.00000000E+00
  0.00000000E+00  0.00000000E+00  0.00000000E+00
  0.00000000E+00  0.00000000E+00  0.00000000E+00
  0.00000000E+00  0.00000000E+00  0.00000000E+00
  0.00000000E+00  0.00000000E+00  0.00000000E+00
  0.00000000E+00  0.00000000E+00  0.00000000E+00
  0.00000000E+00  0.00000000E+00  0.00000000E+00
  0.00000000E+00  0.00000000E+00  0.00000000E+00
  0.00000000E+00  0.00000000E+00  0.00000000E+00
  0.00000000E+00  0.00000000E+00  0.00000000E+00
  0.00000000E+00  0.00000000E+00  0.00000000E+00
  0.00000000E+00  0.00000000E+00  0.00000000E+00
  0.00000000E+00  0.00000000E+00  0.00000000E+00
  0.00000000E+00  0.00000000E+00  0.00000000E+00
