Graphene-BC3 Hollow with lattice paramet
   1.00000000000000     
     4.3682321366887082    2.5219999999999998    0.0000000000000000
    -4.3682321366887082    2.5219999999999998    0.0000000000000000
     0.0000000000000000    0.0000000000000000   15.0000000000000000
   B    C 
     2    14
Direct
  0.3382258460038397  0.6691079910312554  0.1135166299910779
  0.6715624603541619  0.3357767666018044  0.1131858569625893
  0.1645063222901569  0.3216677583117707  0.1131670907337666
  0.3240403647681597  0.1620139337680606  0.1131774166306532
  0.1645058056645066  0.8428298144965762  0.1131690731457854
  0.8453169563244562  0.1620133095245425  0.1131693329676935
  0.6856629224354309  0.8428272054819902  0.1131618479387177
  0.8453166191124667  0.6832928007426493  0.1131713772702481
  0.3334584191253424  0.1667337436186794  0.3380407829918360
  0.5001495710945734  0.0001469708030132  0.3380123827679763
  0.3334373885442504  0.6667232121012892  0.3377140343120025
  0.5001495967564599  0.5000110962036154  0.3380123869959932
  0.8334317887426413  0.1667350010978418  0.3380358522817914
  0.0001093036711206  0.0000588699306941  0.3380170846066021
  0.8334317885605868  0.6667058462382831  0.3380358903816182
  0.0000201798851807  0.5000143467146292  0.3380129600216485
 
  0.00000000E+00  0.00000000E+00  0.00000000E+00
  0.00000000E+00  0.00000000E+00  0.00000000E+00
  0.00000000E+00  0.00000000E+00  0.00000000E+00
  0.00000000E+00  0.00000000E+00  0.00000000E+00
  0.00000000E+00  0.00000000E+00  0.00000000E+00
  0.00000000E+00  0.00000000E+00  0.00000000E+00
  0.00000000E+00  0.00000000E+00  0.00000000E+00
  0.00000000E+00  0.00000000E+00  0.00000000E+00
  0.00000000E+00  0.00000000E+00  0.00000000E+00
  0.00000000E+00  0.00000000E+00  0.00000000E+00
  0.00000000E+00  0.00000000E+00  0.00000000E+00
  0.00000000E+00  0.00000000E+00  0.00000000E+00
  0.00000000E+00  0.00000000E+00  0.00000000E+00
  0.00000000E+00  0.00000000E+00  0.00000000E+00
  0.00000000E+00  0.00000000E+00  0.00000000E+00
  0.00000000E+00  0.00000000E+00  0.00000000E+00
