Graphene-B4C3 Bridge with lattice parame
   1.00000000000000     
     4.2036873099696637    2.4269999999999992    0.0000000000000000
    -4.2036873099696637    2.4269999999999992    0.0000000000000000
     0.0000000000000000    0.0000000000000000   15.0000000000000000
   B    C 
     4    11
Direct
  0.0467021673633513 -0.0376055567297101  0.1017717194094539
  0.4019165610047878 -0.0373361115410115  0.1017884549678002
  0.0464569485638736  0.3173379047034272  0.1018084071735654
  0.6918511568596633  0.6071963790513444  0.1017968330834254
  0.3703913445773240  0.2857823245340191  0.1017198809983386
  0.7233516423205968 -0.0373690309257531  0.1017240081733676
  0.0464760945526704  0.6387664166825563  0.1017206144887154
  0.0461217831851770  0.4519917569762354  0.3366287914442602
  0.2127706702674200  0.2853767274010074  0.3366755536136927
  0.0461079305031233  0.9520048745947000  0.3365936807086673
  0.2128185177567013  0.7853327988352086  0.3366714851408876
  0.5461113495326354  0.4520242996392121  0.3366379519166735
  0.7127657073043938  0.2853343296192351  0.3365399327027934
  0.5460680364577433  0.9519783728138914  0.3366408460200220
  0.7127174230838613  0.7852851810123344  0.3366611734916720
 
  0.00000000E+00  0.00000000E+00  0.00000000E+00
  0.00000000E+00  0.00000000E+00  0.00000000E+00
  0.00000000E+00  0.00000000E+00  0.00000000E+00
  0.00000000E+00  0.00000000E+00  0.00000000E+00
  0.00000000E+00  0.00000000E+00  0.00000000E+00
  0.00000000E+00  0.00000000E+00  0.00000000E+00
  0.00000000E+00  0.00000000E+00  0.00000000E+00
  0.00000000E+00  0.00000000E+00  0.00000000E+00
  0.00000000E+00  0.00000000E+00  0.00000000E+00
  0.00000000E+00  0.00000000E+00  0.00000000E+00
  0.00000000E+00  0.00000000E+00  0.00000000E+00
  0.00000000E+00  0.00000000E+00  0.00000000E+00
  0.00000000E+00  0.00000000E+00  0.00000000E+00
  0.00000000E+00  0.00000000E+00  0.00000000E+00
  0.00000000E+00  0.00000000E+00  0.00000000E+00
