Graphene-B4C3 Bridge with lattice parame
   1.00000000000000     
     4.2036873099696637    2.4269999999999992    0.0000000000000000
    -4.2036873099696637    2.4269999999999992    0.0000000000000000
     0.0000000000000000    0.0000000000000000   15.0000000000000000
   B    C 
     4    11
Direct
  0.0045265401658019  0.0025392507509386  0.1030202212668591
  0.3596199490145947  0.0023167456985381  0.1010919104004103
  0.0047100244410382  0.3574572023641723  0.1015627405900839
  0.6498840631295146  0.6470744639029261  0.1014282382674066
  0.3285785677879028  0.3260668135436061  0.1014451826192651
  0.6808008509497611  0.0021927079692376  0.1019061849151211
  0.0046741968035565  0.6785906297588381  0.1015627389911985
  0.0828566394687816  0.4170602118237037  0.3366182640706415
  0.2495686312719967  0.2504224077213555  0.3368193153345327
  0.0828757106278568  0.9170549991469615  0.3367202965872316
  0.2495846041882317  0.7503813009836697  0.3365771024938704
  0.5829068449788246  0.4170382957642449  0.3366147282440710
  0.7495517660322072  0.2503433053777940  0.3365664262965419
  0.5829290497372946  0.9171554028647622  0.3367841942103638
  0.7495598947359590  0.7504069289959485  0.3366617890457387
 
  0.00000000E+00  0.00000000E+00  0.00000000E+00
  0.00000000E+00  0.00000000E+00  0.00000000E+00
  0.00000000E+00  0.00000000E+00  0.00000000E+00
  0.00000000E+00  0.00000000E+00  0.00000000E+00
  0.00000000E+00  0.00000000E+00  0.00000000E+00
  0.00000000E+00  0.00000000E+00  0.00000000E+00
  0.00000000E+00  0.00000000E+00  0.00000000E+00
  0.00000000E+00  0.00000000E+00  0.00000000E+00
  0.00000000E+00  0.00000000E+00  0.00000000E+00
  0.00000000E+00  0.00000000E+00  0.00000000E+00
  0.00000000E+00  0.00000000E+00  0.00000000E+00
  0.00000000E+00  0.00000000E+00  0.00000000E+00
  0.00000000E+00  0.00000000E+00  0.00000000E+00
  0.00000000E+00  0.00000000E+00  0.00000000E+00
  0.00000000E+00  0.00000000E+00  0.00000000E+00
