Graphene-B4C3 Bridge with lattice parame
   1.00000000000000     
     4.2036873099696637    2.4269999999999992    0.0000000000000000
    -4.2036873099696637    2.4269999999999992    0.0000000000000000
     0.0000000000000000    0.0000000000000000   15.0000000000000000
   B    C 
     4    11
Direct
  0.0041477903905807  0.0026704229978303  0.1197110204574121
  0.3563024667778548  0.0028431694894235  0.0976574408158475
  0.0041894272262794  0.3549580321468314  0.0976897481474120
  0.6520336581207190  0.6505970309507619  0.0976673250801734
  0.3263730827491824  0.3248901849075373  0.1003033051354161
  0.6821791325839854  0.0028183359007382  0.1003010290277087
  0.0041684415994571  0.6805738419406954  0.1002719254730730
  0.0833249400758498  0.4167218835446937  0.3364651704200162
  0.2500861696430158  0.2501286661719183  0.3365135925809715
  0.0834141380136743  0.9167313810562575  0.3364597308097242
  0.2501479920200645  0.7499785882008918  0.3364519586535298
  0.5833095997463138  0.4166562612710178  0.3364445614252134
  0.7499669955974319  0.2500016744848486  0.3364642806803111
  0.5832124552071016  0.9166407655134395  0.3365017646603999
  0.7497710435818113  0.7498904280898112  0.3364764799661271
 
  0.00000000E+00  0.00000000E+00  0.00000000E+00
  0.00000000E+00  0.00000000E+00  0.00000000E+00
  0.00000000E+00  0.00000000E+00  0.00000000E+00
  0.00000000E+00  0.00000000E+00  0.00000000E+00
  0.00000000E+00  0.00000000E+00  0.00000000E+00
  0.00000000E+00  0.00000000E+00  0.00000000E+00
  0.00000000E+00  0.00000000E+00  0.00000000E+00
  0.00000000E+00  0.00000000E+00  0.00000000E+00
  0.00000000E+00  0.00000000E+00  0.00000000E+00
  0.00000000E+00  0.00000000E+00  0.00000000E+00
  0.00000000E+00  0.00000000E+00  0.00000000E+00
  0.00000000E+00  0.00000000E+00  0.00000000E+00
  0.00000000E+00  0.00000000E+00  0.00000000E+00
  0.00000000E+00  0.00000000E+00  0.00000000E+00
  0.00000000E+00  0.00000000E+00  0.00000000E+00
