Graphene-B4C3 Top with lattice parameter
   1.00000000000000     
     4.1984911575469575    2.4239999999999995    0.0000000000000000
    -4.1984911575469575    2.4239999999999995    0.0000000000000000
     0.0000000000000000    0.0000000000000000   15.0000000000000000
   B    C 
     4    11
Direct
  0.0040287786187090  0.0026768780849417  0.1012515612179203
  0.3592162330136923  0.0029626117909562  0.1004905438164060
  0.0037443748359749  0.3575806971107815  0.1004912371344777
  0.6491230524201932  0.6474946042891014  0.1004879593849753
  0.3277319131195790  0.3261027539251226  0.1005041735023944
  0.6806011119457899  0.0029594698285525  0.1005046496882467
  0.0037441753599182  0.6789683468591110  0.1005021080765595
  0.0001591649611199  0.5000783097228370  0.3349144030709161
  0.1668055737457522  0.3334654239448502  0.3349478095723253
  0.0001386648351784  0.0000854602042940  0.3348766783692870
  0.1668488078283606  0.8334180510725572  0.3349516096760534
  0.5001482981918608  0.5001168452123221  0.3349170467306107
  0.6668043193583150  0.3334201678711777  0.3348122544319950
  0.5001081568345790  0.0000646566323017  0.3349127431448009
  0.6667580415976686  0.8333730567844192  0.3349478888497139
 
  0.00000000E+00  0.00000000E+00  0.00000000E+00
  0.00000000E+00  0.00000000E+00  0.00000000E+00
  0.00000000E+00  0.00000000E+00  0.00000000E+00
  0.00000000E+00  0.00000000E+00  0.00000000E+00
  0.00000000E+00  0.00000000E+00  0.00000000E+00
  0.00000000E+00  0.00000000E+00  0.00000000E+00
  0.00000000E+00  0.00000000E+00  0.00000000E+00
  0.00000000E+00  0.00000000E+00  0.00000000E+00
  0.00000000E+00  0.00000000E+00  0.00000000E+00
  0.00000000E+00  0.00000000E+00  0.00000000E+00
  0.00000000E+00  0.00000000E+00  0.00000000E+00
  0.00000000E+00  0.00000000E+00  0.00000000E+00
  0.00000000E+00  0.00000000E+00  0.00000000E+00
  0.00000000E+00  0.00000000E+00  0.00000000E+00
  0.00000000E+00  0.00000000E+00  0.00000000E+00
