Graphene-B4C3 Top with lattice parameter
   1.00000000000000     
     4.1984911575469575    2.4239999999999995    0.0000000000000000
    -4.1984911575469575    2.4239999999999995    0.0000000000000000
     0.0000000000000000    0.0000000000000000   15.0000000000000000
   B    C 
     4    11
Direct
  0.0041800426706874  0.0027652724130455  0.1188914533238582
  0.3568707876011615  0.0030556765447213  0.0979584595385490
  0.0039085375049639  0.3551763456449560  0.0979598264155679
  0.6517651145422821  0.6500979078969691  0.0979513722237941
  0.3265960298002681  0.3248490919292125  0.1002627717614065
  0.6821090308769615  0.0031270348777350  0.1002448108195936
  0.0038534820319598  0.6803571109686365  0.1002381648003016
 -0.0000801277080685  0.5000106385125472  0.3337576279566881
  0.1666216640322150  0.3331519993608829  0.3338100403907471
  0.9999999654463954  0.0000027742495012  0.3336301731490642
  0.1665394388003330  0.8333841134473304  0.3338135424291026
  0.4999848138560684  0.4999071552126878  0.3337611036698510
  0.6666694095791504  0.3333322356840867  0.3336667952198807
  0.5000884666910285  0.0000804189000263  0.3337569802228443
  0.6668540109412862  0.8334695576909870  0.3338095447454336
 
  0.00000000E+00  0.00000000E+00  0.00000000E+00
  0.00000000E+00  0.00000000E+00  0.00000000E+00
  0.00000000E+00  0.00000000E+00  0.00000000E+00
  0.00000000E+00  0.00000000E+00  0.00000000E+00
  0.00000000E+00  0.00000000E+00  0.00000000E+00
  0.00000000E+00  0.00000000E+00  0.00000000E+00
  0.00000000E+00  0.00000000E+00  0.00000000E+00
  0.00000000E+00  0.00000000E+00  0.00000000E+00
  0.00000000E+00  0.00000000E+00  0.00000000E+00
  0.00000000E+00  0.00000000E+00  0.00000000E+00
  0.00000000E+00  0.00000000E+00  0.00000000E+00
  0.00000000E+00  0.00000000E+00  0.00000000E+00
  0.00000000E+00  0.00000000E+00  0.00000000E+00
  0.00000000E+00  0.00000000E+00  0.00000000E+00
  0.00000000E+00  0.00000000E+00  0.00000000E+00
