Graphene-B4C3 Top with lattice parameter
   1.00000000000000     
     4.1984911575469575    2.4239999999999995    0.0000000000000000
    -4.1984911575469575    2.4239999999999995    0.0000000000000000
     0.0000000000000000    0.0000000000000000   15.0000000000000000
   B    C 
     4    11
Direct
  0.0042041415617857  0.0028826954535610  0.1069072103770146
  0.3589645525386428  0.0030657675404085  0.1005060423492421
  0.0037394464923209  0.3572726251452490  0.1004998076310964
  0.6497921021196730  0.6478955916280500  0.1005170590138396
  0.3278789699026688  0.3263613665751238  0.1011935774963414
  0.6805379145424708  0.0027473460686496  0.1012403994173620
  0.0040228763428064  0.6791122587541604  0.1012469012579813
  0.0000698669226738  0.4999333968454290  0.3339891045367098
  0.1665513152054794  0.3333385334274029  0.3339579591406071
  0.0000532404954515  0.0000176305883271  0.3338785459222902
  0.1667560673017544  0.8334430698440375  0.3339645417334303
  0.5001383590670099  0.5001227751465238  0.3339938817912185
  0.6666534393408616  0.3333404222643475  0.3336766331487375
  0.4999457924254624 -0.0000035060910512  0.3339850280923305
  0.6666525824076308  0.8332373601431065  0.3339559747584813
 
  0.00000000E+00  0.00000000E+00  0.00000000E+00
  0.00000000E+00  0.00000000E+00  0.00000000E+00
  0.00000000E+00  0.00000000E+00  0.00000000E+00
  0.00000000E+00  0.00000000E+00  0.00000000E+00
  0.00000000E+00  0.00000000E+00  0.00000000E+00
  0.00000000E+00  0.00000000E+00  0.00000000E+00
  0.00000000E+00  0.00000000E+00  0.00000000E+00
  0.00000000E+00  0.00000000E+00  0.00000000E+00
  0.00000000E+00  0.00000000E+00  0.00000000E+00
  0.00000000E+00  0.00000000E+00  0.00000000E+00
  0.00000000E+00  0.00000000E+00  0.00000000E+00
  0.00000000E+00  0.00000000E+00  0.00000000E+00
  0.00000000E+00  0.00000000E+00  0.00000000E+00
  0.00000000E+00  0.00000000E+00  0.00000000E+00
  0.00000000E+00  0.00000000E+00  0.00000000E+00
