Graphene-B4C3 Bridge with lattice parame
   1.00000000000000     
     4.1967591067393890    2.4229999999999996    0.0000000000000000
    -4.1967591067393890    2.4229999999999996    0.0000000000000000
     0.0000000000000000    0.0000000000000000   15.0000000000000000
   B    C 
     4    11
Direct
  0.0041479920584149  0.0026968392817445  0.1186823934031164
  0.3568099628784858  0.0028088448963197  0.0979512904188477
  0.0041575165747320  0.3554309655881674  0.0980405174762238
  0.6516273730844964  0.6500205472624845  0.0980038478764307
  0.3266206468169480  0.3249690581742895  0.1002670974146129
  0.6820636951035118  0.0028540424305651  0.1003156725337484
  0.0041814694232867  0.6803753209446168  0.1002505141432308
  0.0832861828024887  0.4166576189443852  0.3364680073583684
  0.2498884533108898  0.2499862214096486  0.3365862695864013
  0.0832168275615558  0.9166432569889276  0.3364576433154056
  0.2498363857011187  0.7500625725418067  0.3364276872551676
  0.5833164579951730  0.4166793640942967  0.3364161539381755
  0.7499683090489246  0.2500293177110319  0.3364589819739985
  0.5833994451228357  0.9167516827162591  0.3365617388591976
  0.7501066158504597  0.7501350136821533  0.3364915177804106
 
  0.00000000E+00  0.00000000E+00  0.00000000E+00
  0.00000000E+00  0.00000000E+00  0.00000000E+00
  0.00000000E+00  0.00000000E+00  0.00000000E+00
  0.00000000E+00  0.00000000E+00  0.00000000E+00
  0.00000000E+00  0.00000000E+00  0.00000000E+00
  0.00000000E+00  0.00000000E+00  0.00000000E+00
  0.00000000E+00  0.00000000E+00  0.00000000E+00
  0.00000000E+00  0.00000000E+00  0.00000000E+00
  0.00000000E+00  0.00000000E+00  0.00000000E+00
  0.00000000E+00  0.00000000E+00  0.00000000E+00
  0.00000000E+00  0.00000000E+00  0.00000000E+00
  0.00000000E+00  0.00000000E+00  0.00000000E+00
  0.00000000E+00  0.00000000E+00  0.00000000E+00
  0.00000000E+00  0.00000000E+00  0.00000000E+00
  0.00000000E+00  0.00000000E+00  0.00000000E+00
