Graphene-B4C3 Bridge with lattice parame
   1.00000000000000     
     4.1967591067393890    2.4229999999999996    0.0000000000000000
    -4.1967591067393890    2.4229999999999996    0.0000000000000000
     0.0000000000000000    0.0000000000000000   15.0000000000000000
   B    C 
     4    11
Direct
  0.0045449994642769  0.0024637118634260  0.1043874104437203
  0.3594781274820095  0.0023381937367183  0.1008506946649444
  0.0046794125943117  0.3573646276859058  0.1012320301969571
  0.6499052709072902  0.6472852914568101  0.1011224569725470
  0.3283922009709599  0.3259226177955348  0.1013646903019359
  0.6810244816257077  0.0022716631138512  0.1017485615409897
  0.0046598628899127  0.6786868815876075  0.1014609949873541
  0.0829551778381302  0.4170576107884099  0.3365973952877446
  0.2495728612554013  0.2503391977810859  0.3367750723765669
  0.0829907938453765  0.9171480731709745  0.3366853457146232
  0.2496535493896382  0.7504421747019101  0.3365929468590996
  0.5828752113886817  0.4170749364259922  0.3366032055883525
  0.7495756763311097  0.2504272295736614  0.3365771271999758
  0.5828175329002367  0.9169371679545585  0.3367286280743476
  0.7495021744502791  0.7503412890302508  0.3366527731241774
 
  0.00000000E+00  0.00000000E+00  0.00000000E+00
  0.00000000E+00  0.00000000E+00  0.00000000E+00
  0.00000000E+00  0.00000000E+00  0.00000000E+00
  0.00000000E+00  0.00000000E+00  0.00000000E+00
  0.00000000E+00  0.00000000E+00  0.00000000E+00
  0.00000000E+00  0.00000000E+00  0.00000000E+00
  0.00000000E+00  0.00000000E+00  0.00000000E+00
  0.00000000E+00  0.00000000E+00  0.00000000E+00
  0.00000000E+00  0.00000000E+00  0.00000000E+00
  0.00000000E+00  0.00000000E+00  0.00000000E+00
  0.00000000E+00  0.00000000E+00  0.00000000E+00
  0.00000000E+00  0.00000000E+00  0.00000000E+00
  0.00000000E+00  0.00000000E+00  0.00000000E+00
  0.00000000E+00  0.00000000E+00  0.00000000E+00
  0.00000000E+00  0.00000000E+00  0.00000000E+00
