Graphene-B4C3 Hollow 2 with lattice para
   1.00000000000000     
     4.2036873099696637    2.4269999999999992    0.0000000000000000
    -4.2036873099696637    2.4269999999999992    0.0000000000000000
     0.0000000000000000    0.0000000000000000   15.0000000000000000
   B    C 
     4    11
Direct
  0.0043996455552512  0.0029231239518593  0.0997085021175016
  0.3595491329653333  0.0029312910653027  0.1009763214959268
  0.0044111134681674  0.3580748985964137  0.1009784361483308
  0.6492594790324446  0.6477803324734993  0.1009837679618222
  0.3280032949812839  0.3265257679869314  0.1007603904278901
  0.6808099061347820  0.0029269699629330  0.1007664997984541
  0.0044055875435534  0.6793328488307054  0.1007682672479597
  0.1664573347027955  0.3331995283231326  0.3383124315941220
  0.3331391574185408  0.1665164007801785  0.3383141745552782
  0.1664905081815418  0.8332186848513917  0.3383167138053675
  0.3331391241143258  0.6665340229172284  0.3382102829635626
  0.6664724140750737  0.3331991924162537  0.3382102890805393
  0.8331573859724504  0.1665507331153087  0.3383159841217922
  0.6664739216049728  0.8331856053983692  0.3383125052153979
  0.8331259942494891  0.6665345993305031  0.3383114334660822
 
  0.00000000E+00  0.00000000E+00  0.00000000E+00
  0.00000000E+00  0.00000000E+00  0.00000000E+00
  0.00000000E+00  0.00000000E+00  0.00000000E+00
  0.00000000E+00  0.00000000E+00  0.00000000E+00
  0.00000000E+00  0.00000000E+00  0.00000000E+00
  0.00000000E+00  0.00000000E+00  0.00000000E+00
  0.00000000E+00  0.00000000E+00  0.00000000E+00
  0.00000000E+00  0.00000000E+00  0.00000000E+00
  0.00000000E+00  0.00000000E+00  0.00000000E+00
  0.00000000E+00  0.00000000E+00  0.00000000E+00
  0.00000000E+00  0.00000000E+00  0.00000000E+00
  0.00000000E+00  0.00000000E+00  0.00000000E+00
  0.00000000E+00  0.00000000E+00  0.00000000E+00
  0.00000000E+00  0.00000000E+00  0.00000000E+00
  0.00000000E+00  0.00000000E+00  0.00000000E+00
