Graphene-B4C3 Top with lattice parameter
   1.00000000000000     
     4.1924289797204670    2.4205000000000001    0.0000000000000000
    -4.1924289797204670    2.4205000000000001    0.0000000000000000
     0.0000000000000000    0.0000000000000000   15.0000000000000000
   B    C 
     4    11
Direct
  0.0040320869533557  0.0026822109367638  0.1015532904045266
  0.3592102300026485  0.0029533214612673  0.1004700507779228
  0.0037491164220019  0.3575801909022021  0.1004708393095095
  0.6491251891870563  0.6474984217739242  0.1004664379149437
  0.3278028687902600  0.3261747313517417  0.1005250961980301
  0.6805300092082565  0.0029545620519588  0.1005223523669483
  0.0037505028802211  0.6788996996013908  0.1005197579391551
  0.0001553345820942  0.5000776996268274  0.3348769361773865
  0.1668058658206140  0.3334680691470644  0.3349122584578699
  0.0001370238092344  0.0000856356133130  0.3348358271774775
  0.1668486978338536  0.8334173873588019  0.3349162501640802
  0.5001472269560421  0.5001153517557064  0.3348796226919642
  0.6668033501605416  0.3334205363756505  0.3347760658216217
  0.5001082535924161  0.0000671959052365  0.3348754370068055
  0.6667549104680963  0.8333723194714766  0.3349124442584409
 
  0.00000000E+00  0.00000000E+00  0.00000000E+00
  0.00000000E+00  0.00000000E+00  0.00000000E+00
  0.00000000E+00  0.00000000E+00  0.00000000E+00
  0.00000000E+00  0.00000000E+00  0.00000000E+00
  0.00000000E+00  0.00000000E+00  0.00000000E+00
  0.00000000E+00  0.00000000E+00  0.00000000E+00
  0.00000000E+00  0.00000000E+00  0.00000000E+00
  0.00000000E+00  0.00000000E+00  0.00000000E+00
  0.00000000E+00  0.00000000E+00  0.00000000E+00
  0.00000000E+00  0.00000000E+00  0.00000000E+00
  0.00000000E+00  0.00000000E+00  0.00000000E+00
  0.00000000E+00  0.00000000E+00  0.00000000E+00
  0.00000000E+00  0.00000000E+00  0.00000000E+00
  0.00000000E+00  0.00000000E+00  0.00000000E+00
  0.00000000E+00  0.00000000E+00  0.00000000E+00
