Graphene-BC3 Hollow with lattice paramet
   1.00000000000000     
     4.3682321366887082    2.5219999999999998    0.0000000000000000
    -4.3682321366887082    2.5219999999999998    0.0000000000000000
     0.0000000000000000    0.0000000000000000   15.0000000000000000
   B    C 
     2    14
Direct
  0.3382167864570197  0.6691064113971051  0.1135558043260513
  0.6715541522142159  0.3357740231864800  0.1132239452262940
  0.1644960917703551  0.3216620386716843  0.1131956896792638
  0.3240274079595625  0.1620101852870256  0.1132072352089457
  0.1644934087638127  0.8428286897668382  0.1131995413061736
  0.8453118506636770  0.1620090838401073  0.1131964890652777
  0.6856589330227948  0.8428274096587016  0.1131896823615387
  0.8453099565167672  0.6832976244545791  0.1132003986254649
  0.3334671753306687  0.1667350919283074  0.3380112908210943
  0.5001586900738165  0.0001507351965713  0.3379803768708709
  0.3334462034607319  0.6667246211963035  0.3376777976148386
  0.5001587498259655  0.5000123362162087  0.3379804113589633
  0.8334406825848804  0.1667362296588811  0.3380063245968830
  0.0001175917658372  0.0000610279153585  0.3379878451831625
  0.8334407078902519  0.6667074831985238  0.3380063138354318
  0.0000269450329762  0.5000156750940190  0.3379808539197459
 
  0.00000000E+00  0.00000000E+00  0.00000000E+00
  0.00000000E+00  0.00000000E+00  0.00000000E+00
  0.00000000E+00  0.00000000E+00  0.00000000E+00
  0.00000000E+00  0.00000000E+00  0.00000000E+00
  0.00000000E+00  0.00000000E+00  0.00000000E+00
  0.00000000E+00  0.00000000E+00  0.00000000E+00
  0.00000000E+00  0.00000000E+00  0.00000000E+00
  0.00000000E+00  0.00000000E+00  0.00000000E+00
  0.00000000E+00  0.00000000E+00  0.00000000E+00
  0.00000000E+00  0.00000000E+00  0.00000000E+00
  0.00000000E+00  0.00000000E+00  0.00000000E+00
  0.00000000E+00  0.00000000E+00  0.00000000E+00
  0.00000000E+00  0.00000000E+00  0.00000000E+00
  0.00000000E+00  0.00000000E+00  0.00000000E+00
  0.00000000E+00  0.00000000E+00  0.00000000E+00
  0.00000000E+00  0.00000000E+00  0.00000000E+00
