Graphene-BC3 Hollow with lattice paramet
   1.00000000000000     
     4.3682321366887074    2.5219999999999994    0.0000000000000000
    -4.3682321366887074    2.5219999999999994    0.0000000000000000
     0.0000000000000000    0.0000000000000000   15.0000000000000000
   B    C 
     2    14
Direct
  0.3382316680559939  0.6691140642528535  0.1004756506135798
  0.6715656418889808  0.3357815366968890  0.1001642980179162
  0.1645179407358778  0.3216916164811754  0.1001679033834438
  0.3240680213810562  0.1620320852693258  0.1001769237202476
  0.1645182459885586  0.8428243157912579  0.1001678811462491
  0.8453115084836594  0.1620311231956497  0.1001661804346337
  0.6856463402618364  0.8428221517667684  0.1001572008800090
  0.8453120044951603  0.6832766215789957  0.1001662001035127
  0.3334534017298287  0.1667277422766003  0.3253812343845212
  0.5001420623126765  0.0001359257197678  0.3253552234301840
  0.3334339780916488  0.6667180397178641  0.3250685670331750
  0.5001420545355411  0.5000081493438280  0.3253552222364138
  0.8334288683682282  0.1667290717792418  0.3253765129099364
  0.0001044205534517  0.0000532030041189  0.3253552846615072
  0.8334288589600348  0.6667018582482677  0.3253765111522244
  0.0000203174907988  0.5000111615440918  0.3253558725591177
 
  0.00000000E+00  0.00000000E+00  0.00000000E+00
  0.00000000E+00  0.00000000E+00  0.00000000E+00
  0.00000000E+00  0.00000000E+00  0.00000000E+00
  0.00000000E+00  0.00000000E+00  0.00000000E+00
  0.00000000E+00  0.00000000E+00  0.00000000E+00
  0.00000000E+00  0.00000000E+00  0.00000000E+00
  0.00000000E+00  0.00000000E+00  0.00000000E+00
  0.00000000E+00  0.00000000E+00  0.00000000E+00
  0.00000000E+00  0.00000000E+00  0.00000000E+00
  0.00000000E+00  0.00000000E+00  0.00000000E+00
  0.00000000E+00  0.00000000E+00  0.00000000E+00
  0.00000000E+00  0.00000000E+00  0.00000000E+00
  0.00000000E+00  0.00000000E+00  0.00000000E+00
  0.00000000E+00  0.00000000E+00  0.00000000E+00
  0.00000000E+00  0.00000000E+00  0.00000000E+00
  0.00000000E+00  0.00000000E+00  0.00000000E+00
