Graphene-BC3 Top with lattice parameter 
   1.00000000000000     
     4.2868257487329711    2.4750000000000001    0.0000000000000000
    -4.2868257487329711    2.4750000000000001    0.0000000000000000
     0.0000000000000000    0.0000000000000000   15.0000000000000000
   B    C 
     2    14
Direct
  0.3406047697611355  0.6703374140124777  0.1022388987007455
  0.6742962797168521  0.3370476456147136  0.1020012308477348
  0.1674829178790737  0.3239861251182418  0.0971708133263735
  0.3274373304644875  0.1637534470284167  0.0920206040138449
  0.1675460332109471  0.8433878979299723  0.0970742696930258
  0.8472098820818362  0.1640411703106738  0.1074110466882825
  0.6870005584605638  0.8434085808157757  0.1122837151715094
  0.8472459095234194  0.6832269586408517  0.1072964272360858
  0.1642476565901415  0.3320965276749745  0.3265419676342655
  0.3308983074806102  0.1654686791157449  0.3264243042568337
  0.1642479984996314  0.8322226689198365  0.3265413905279997
  0.3309837011827558  0.6655125129827071  0.3264739410197311
  0.6643133338280908  0.3321894031702862  0.3264504669659187
  0.8310263451679354  0.1654402343647551  0.3267845425658693
  0.6644250647748464  0.8322496440151544  0.3269040142449695
  0.8310259113776909  0.6656230902854258  0.3267823671068306
 
  0.00000000E+00  0.00000000E+00  0.00000000E+00
  0.00000000E+00  0.00000000E+00  0.00000000E+00
  0.00000000E+00  0.00000000E+00  0.00000000E+00
  0.00000000E+00  0.00000000E+00  0.00000000E+00
  0.00000000E+00  0.00000000E+00  0.00000000E+00
  0.00000000E+00  0.00000000E+00  0.00000000E+00
  0.00000000E+00  0.00000000E+00  0.00000000E+00
  0.00000000E+00  0.00000000E+00  0.00000000E+00
  0.00000000E+00  0.00000000E+00  0.00000000E+00
  0.00000000E+00  0.00000000E+00  0.00000000E+00
  0.00000000E+00  0.00000000E+00  0.00000000E+00
  0.00000000E+00  0.00000000E+00  0.00000000E+00
  0.00000000E+00  0.00000000E+00  0.00000000E+00
  0.00000000E+00  0.00000000E+00  0.00000000E+00
  0.00000000E+00  0.00000000E+00  0.00000000E+00
  0.00000000E+00  0.00000000E+00  0.00000000E+00
