Graphene-B4C3 Top with lattice parameter
   1.00000000000000     
     4.2062853861810181    2.4285000000000001    0.0000000000000000
    -4.2062853861810181    2.4285000000000001    0.0000000000000000
     0.0000000000000000    0.0000000000000000   15.0000000000000000
   B    C 
     4    11
Direct
  0.0040305891637473  0.0026802959051696  0.1010227311533339
  0.3592172264990582  0.0029732934103760  0.1004257402652353
  0.0037326064408400  0.3575712956617335  0.1004264887958734
  0.6491372345505418  0.6474953966819105  0.1004230640198466
  0.3276579222181935  0.3260191930696903  0.1004207255838842
  0.6806876627061084  0.0029677960080098  0.1004220924860999
  0.0037376116817281  0.6790488310181356  0.1004196785095105
  0.0001544945579523  0.5000765190518990  0.3349982369520122
  0.1668056894503752  0.3334655279722865  0.3350311124155070
  0.0001368793402140  0.0000840788228867  0.3349611661773959
  0.1668478213799042  0.8334157261135163  0.3350349222865235
  0.5001468656883431  0.5001125281108574  0.3350008614442429
  0.6668031926219078  0.3334189628350566  0.3348979732752745
  0.5001091699598160  0.0000663108540615  0.3349966374093606
  0.6667557004079654  0.8333715778177362  0.3350312358925827
 
  0.00000000E+00  0.00000000E+00  0.00000000E+00
  0.00000000E+00  0.00000000E+00  0.00000000E+00
  0.00000000E+00  0.00000000E+00  0.00000000E+00
  0.00000000E+00  0.00000000E+00  0.00000000E+00
  0.00000000E+00  0.00000000E+00  0.00000000E+00
  0.00000000E+00  0.00000000E+00  0.00000000E+00
  0.00000000E+00  0.00000000E+00  0.00000000E+00
  0.00000000E+00  0.00000000E+00  0.00000000E+00
  0.00000000E+00  0.00000000E+00  0.00000000E+00
  0.00000000E+00  0.00000000E+00  0.00000000E+00
  0.00000000E+00  0.00000000E+00  0.00000000E+00
  0.00000000E+00  0.00000000E+00  0.00000000E+00
  0.00000000E+00  0.00000000E+00  0.00000000E+00
  0.00000000E+00  0.00000000E+00  0.00000000E+00
  0.00000000E+00  0.00000000E+00  0.00000000E+00
