k-points 39
0
Gamma
39    39    1
0    0    0