Graphene-Borophene Bridge with lattice p
   1.00000000000000     
     4.3297806087606796    2.4998000000000000    0.0000000000000000
    -4.3297806087606796    2.4998000000000000    0.0000000000000000
     0.0000000000000000    0.0000000000000000   15.0000000000000000
   B    C 
     8     8
Direct
  0.6697401519583438 -0.0000874001763016  0.1640017952486761
  0.3305536896354386  0.0000157695397844  0.1641666773385212
  0.0000874001763016  0.3302588480416588  0.1640017952486761
 -0.0000157695397844  0.6694453103645638  0.1641666773385212
  0.3306052935307339  0.3305614799437142  0.1641949575586599
  0.6694375200562883  0.6693937064692687  0.1641949575586600
  0.6666372677679312  0.3333617322320713  0.1728266223067446
  0.3332784961631953  0.6667205038368070  0.1692549753731131
  0.2529516360060665  0.2531316345871790  0.4036703222259875
  0.4186856042614331  0.0823854457001602  0.4027489990210676
  0.2503961997229315  0.7496028002770709  0.4021334949233049
  0.4159177117905871  0.5840812882094154  0.4031332626191203
  0.7481359697276803  0.2518630302723223  0.4033790917029767
  0.9157675756968908  0.0842314243031119  0.4042403836222875
  0.7468673654128235  0.7470473639939361  0.4036703222259875
  0.9176135542998424  0.5813133957385692  0.4027489990210676
 
  0.00000000E+00  0.00000000E+00  0.00000000E+00
  0.00000000E+00  0.00000000E+00  0.00000000E+00
  0.00000000E+00  0.00000000E+00  0.00000000E+00
  0.00000000E+00  0.00000000E+00  0.00000000E+00
  0.00000000E+00  0.00000000E+00  0.00000000E+00
  0.00000000E+00  0.00000000E+00  0.00000000E+00
  0.00000000E+00  0.00000000E+00  0.00000000E+00
  0.00000000E+00  0.00000000E+00  0.00000000E+00
  0.00000000E+00  0.00000000E+00  0.00000000E+00
  0.00000000E+00  0.00000000E+00  0.00000000E+00
  0.00000000E+00  0.00000000E+00  0.00000000E+00
  0.00000000E+00  0.00000000E+00  0.00000000E+00
  0.00000000E+00  0.00000000E+00  0.00000000E+00
  0.00000000E+00  0.00000000E+00  0.00000000E+00
  0.00000000E+00  0.00000000E+00  0.00000000E+00
  0.00000000E+00  0.00000000E+00  0.00000000E+00
