Graphene-B4C3 Bridge with lattice parame
   1.00000000000000     
     4.2062853861810181    2.4285000000000001    0.0000000000000000
    -4.2062853861810181    2.4285000000000001    0.0000000000000000
     0.0000000000000000    0.0000000000000000   15.0000000000000000
   B    C 
     4    11
Direct
  0.0316287624918595 -0.0233300554561015  0.1018035145181217
  0.3868436118652400 -0.0230918007319871  0.1020801206463650
  0.0314108326364852  0.3316199988706233  0.1021306844191958
  0.6767635450222378  0.6214853415477707  0.1021216766354486
  0.3553175774320134  0.3000205983904482  0.1019767989135044
  0.7083560812913702 -0.0230847168605125  0.1020184042550321
  0.0314745468535376  0.6530676202590635  0.1020101183696969
  0.0592976843944643  0.4395022618188541  0.3363792141091556
  0.2259355795561766  0.2728615237235710  0.3364769642935946
  0.0592887877406491  0.9395346100437739  0.3363742112907755
  0.2259925410829499  0.7728632066880876  0.3364241217171598
  0.5592668055164753  0.4395242589415455  0.3364015139346457
  0.7259307055862130  0.2728470812671002  0.3363220241161896
  0.5592227988506250  0.9394755966749880  0.3364483453589494
  0.7258974730130258  0.7728051414894730  0.3364116207555010
 
  0.00000000E+00  0.00000000E+00  0.00000000E+00
  0.00000000E+00  0.00000000E+00  0.00000000E+00
  0.00000000E+00  0.00000000E+00  0.00000000E+00
  0.00000000E+00  0.00000000E+00  0.00000000E+00
  0.00000000E+00  0.00000000E+00  0.00000000E+00
  0.00000000E+00  0.00000000E+00  0.00000000E+00
  0.00000000E+00  0.00000000E+00  0.00000000E+00
  0.00000000E+00  0.00000000E+00  0.00000000E+00
  0.00000000E+00  0.00000000E+00  0.00000000E+00
  0.00000000E+00  0.00000000E+00  0.00000000E+00
  0.00000000E+00  0.00000000E+00  0.00000000E+00
  0.00000000E+00  0.00000000E+00  0.00000000E+00
  0.00000000E+00  0.00000000E+00  0.00000000E+00
  0.00000000E+00  0.00000000E+00  0.00000000E+00
  0.00000000E+00  0.00000000E+00  0.00000000E+00
