Graphene-Borophene Hollow_2 with lattice
   1.00000000000000     
     4.3119404854427197    2.4895000000000000    0.0000000000000000
    -4.3119404854427197    2.4895000000000000    0.0000000000000000
     0.0000000000000000    0.0000000000000000   15.0000000000000000
    C 
    8
Direct
  0.3333531644097026  0.1666765822048584  0.3364521156610717
  0.5000215947637355  0.0000431895274705  0.3365300279591418
  0.3333326666666636  0.6666663333333389  0.3364678353146552
  0.5000215947637355  0.4999774052362673  0.3365300279591418
  0.8333224177951443  0.1666765822048584  0.3364521156610717
  0.9999996666666675  0.9999993333333350  0.3363306138389346
  0.8333224177951443  0.6666458355902997  0.3364521156610717
 -0.0000441895274677  0.4999774052362673  0.3365300279591418
