Graphene-BC3 Hollow with lattice paramet
   1.00000000000000     
     4.3682321366887082    2.5219999999999998    0.0000000000000000
    -4.3682321366887082    2.5219999999999998    0.0000000000000000
     0.0000000000000000    0.0000000000000000   15.0000000000000000
   B    C 
     2    14
Direct
  0.3382033336900321  0.6690986609156155  0.1133816215800039
  0.6715386226905480  0.3357667701529081  0.1130661043872152
  0.1644921616974173  0.3216761204365284  0.1130738720550468
  0.3240386687334720  0.1620159180661247  0.1130801238129422
  0.1644921458159061  0.8428096242195480  0.1130742018371080
  0.8452826925809021  0.1620145316692643  0.1130704584661260
  0.6856203975222925  0.8428069161325524  0.1130655053163920
  0.8452832557159553  0.6832619538625124  0.1130708680307961
  0.3334811173097521  0.1667431367592656  0.3381403848010152
  0.5001692877925876  0.0001509535779292  0.3381174106109555
  0.3334617459026248  0.6667334489019368  0.3378319248477837
  0.5001692848023822  0.5000237365039837  0.3381174094127672
  0.8334564745697506  0.1667444710285650  0.3381357855044982
  0.0001317547184811  0.0000685770052513  0.3381205112583743
  0.8334564922913117  0.6667172008886766  0.3381358174259219
  0.0000478974999254  0.5000266465460186  0.3381180006530542
 
  0.00000000E+00  0.00000000E+00  0.00000000E+00
  0.00000000E+00  0.00000000E+00  0.00000000E+00
  0.00000000E+00  0.00000000E+00  0.00000000E+00
  0.00000000E+00  0.00000000E+00  0.00000000E+00
  0.00000000E+00  0.00000000E+00  0.00000000E+00
  0.00000000E+00  0.00000000E+00  0.00000000E+00
  0.00000000E+00  0.00000000E+00  0.00000000E+00
  0.00000000E+00  0.00000000E+00  0.00000000E+00
  0.00000000E+00  0.00000000E+00  0.00000000E+00
  0.00000000E+00  0.00000000E+00  0.00000000E+00
  0.00000000E+00  0.00000000E+00  0.00000000E+00
  0.00000000E+00  0.00000000E+00  0.00000000E+00
  0.00000000E+00  0.00000000E+00  0.00000000E+00
  0.00000000E+00  0.00000000E+00  0.00000000E+00
  0.00000000E+00  0.00000000E+00  0.00000000E+00
  0.00000000E+00  0.00000000E+00  0.00000000E+00
