Graphene-B4C3 Bridge with lattice parame
   1.00000000000000     
     4.1906969289128986    2.4195000000000002    0.0000000000000000
    -4.1906969289128986    2.4195000000000002    0.0000000000000000
     0.0000000000000000    0.0000000000000000   15.0000000000000000
   B    C 
     4    11
Direct
  0.0251487975390619 -0.0169166768016245  0.1003847627492707
  0.3802544872131526 -0.0170494694097533  0.1012385460496861
  0.0246961275206164  0.3377155703641756  0.1013229379684048
  0.6699496076245058  0.6277649138074665  0.1013110855153331
  0.3487933040080252  0.3063830602742602  0.1009678772674572
  0.7017065432412753 -0.0166511654364559  0.1012725881651460
  0.0255869736603052  0.6592647480120639  0.1010318653435750
  0.0649752337132393  0.4340200794806830  0.3371865123453629
  0.2316750610434828  0.2674322431335829  0.3373314415636535
  0.0649526314311987  0.9339893074930835  0.3371840256897826
  0.2316487248866118  0.7673612184356914  0.3372373259232858
  0.5649585637893417  0.4340020667453622  0.3371927136577587
  0.7316322730378765  0.2673304018428383  0.3371762333190550
  0.5649999037831142  0.9340812508544561  0.3372976440874310
  0.7316491008415156  0.7673731178708675  0.3372437736881330
 
  0.00000000E+00  0.00000000E+00  0.00000000E+00
  0.00000000E+00  0.00000000E+00  0.00000000E+00
  0.00000000E+00  0.00000000E+00  0.00000000E+00
  0.00000000E+00  0.00000000E+00  0.00000000E+00
  0.00000000E+00  0.00000000E+00  0.00000000E+00
  0.00000000E+00  0.00000000E+00  0.00000000E+00
  0.00000000E+00  0.00000000E+00  0.00000000E+00
  0.00000000E+00  0.00000000E+00  0.00000000E+00
  0.00000000E+00  0.00000000E+00  0.00000000E+00
  0.00000000E+00  0.00000000E+00  0.00000000E+00
  0.00000000E+00  0.00000000E+00  0.00000000E+00
  0.00000000E+00  0.00000000E+00  0.00000000E+00
  0.00000000E+00  0.00000000E+00  0.00000000E+00
  0.00000000E+00  0.00000000E+00  0.00000000E+00
  0.00000000E+00  0.00000000E+00  0.00000000E+00
