Graphene-Borophene Bridge with lattice p
   1.00000000000000     
     4.3084763838275819    2.4874999999999998    0.0000000000000000
    -4.3084763838275819    2.4874999999999998    0.0000000000000000
     0.0000000000000000    0.0000000000000000   15.0000000000000000
   B    C 
     8     8
Direct
  0.6707079917505554 -0.0021782915376094  0.1673341010088012
  0.3332622558574968 -0.0020560107464979  0.1672724706422117
  0.0021782915376094  0.3292910082494470  0.1673341010088012
  0.0020560107464979  0.6667367441425061  0.1672724706422117
  0.3331401363742125  0.3291840108991598  0.1664183204882969
  0.6708149891008427  0.6668588636257902  0.1664183204882969
  0.6684764564207175  0.3315225435792857  0.1550933509895555
  0.3351750677948747  0.6648239322051280  0.1798460803397560
  0.2480242744713029  0.2519307164827037  0.4019544974619134
  0.4146569987794827  0.0852685964694807  0.4018391787451268
  0.2480717468589017  0.7519272531411009  0.4019175308427723
  0.4147240537549972  0.5852749462450053  0.4021453335193263
  0.7479385012503991  0.2520604987496032  0.4019207934426490
  0.9146342049209923  0.0853647950790102  0.4019731075066132
  0.7480682835172987  0.7519747255286994  0.4019544974619134
  0.9147304035305218  0.5853420012205196  0.4018391787451268
 
  0.00000000E+00  0.00000000E+00  0.00000000E+00
  0.00000000E+00  0.00000000E+00  0.00000000E+00
  0.00000000E+00  0.00000000E+00  0.00000000E+00
  0.00000000E+00  0.00000000E+00  0.00000000E+00
  0.00000000E+00  0.00000000E+00  0.00000000E+00
  0.00000000E+00  0.00000000E+00  0.00000000E+00
  0.00000000E+00  0.00000000E+00  0.00000000E+00
  0.00000000E+00  0.00000000E+00  0.00000000E+00
  0.00000000E+00  0.00000000E+00  0.00000000E+00
  0.00000000E+00  0.00000000E+00  0.00000000E+00
  0.00000000E+00  0.00000000E+00  0.00000000E+00
  0.00000000E+00  0.00000000E+00  0.00000000E+00
  0.00000000E+00  0.00000000E+00  0.00000000E+00
  0.00000000E+00  0.00000000E+00  0.00000000E+00
  0.00000000E+00  0.00000000E+00  0.00000000E+00
  0.00000000E+00  0.00000000E+00  0.00000000E+00
