Graphene-Borophene Top with lattice para
   1.00000000000000     
     4.2954860027708150    2.4799999999999995    0.0000000000000000
    -4.2954860027708150    2.4799999999999995    0.0000000000000000
     0.0000000000000000    0.0000000000000000   15.0000000000000000
   B    C 
     8     8
Direct
  0.6687016241763516  0.0000368507584095  0.1673604889187949
  0.3313342265820607  0.0000368507584095  0.1673604889187950
 -0.0000368507584094  0.3312973758236518  0.1673604889187949
 -0.0000368507584095  0.6686647734179416  0.1673604889187950
  0.3313342265820607  0.3312973758236518  0.1673604889187950
  0.6687016241763516  0.6686647734179416  0.1673604889187949
  0.6666659999999993  0.3333330000000032  0.1535322575060814
  0.3333330000000032  0.6666659999999993  0.1810789687563816
  0.1666501408943489  0.3333012817887023  0.4004311966803231
  0.3333187133315125  0.1666588566657540  0.4003397640763739
  0.1666501408943489  0.8333488591056530  0.4004311966803231
  0.3333330000000032  0.6666659999999993  0.4004689553181945
  0.6666659999999993  0.3333330000000032  0.4003106693031746
  0.8333401433342484  0.1666588566657540  0.4003397640763739
  0.6666977182112998  0.8333488591056530  0.4004311966803231
  0.8333401433342484  0.6666802866684896  0.4003397640763739
 
  0.00000000E+00  0.00000000E+00  0.00000000E+00
  0.00000000E+00  0.00000000E+00  0.00000000E+00
  0.00000000E+00  0.00000000E+00  0.00000000E+00
  0.00000000E+00  0.00000000E+00  0.00000000E+00
  0.00000000E+00  0.00000000E+00  0.00000000E+00
  0.00000000E+00  0.00000000E+00  0.00000000E+00
  0.00000000E+00  0.00000000E+00  0.00000000E+00
  0.00000000E+00  0.00000000E+00  0.00000000E+00
  0.00000000E+00  0.00000000E+00  0.00000000E+00
  0.00000000E+00  0.00000000E+00  0.00000000E+00
  0.00000000E+00  0.00000000E+00  0.00000000E+00
  0.00000000E+00  0.00000000E+00  0.00000000E+00
  0.00000000E+00  0.00000000E+00  0.00000000E+00
  0.00000000E+00  0.00000000E+00  0.00000000E+00
  0.00000000E+00  0.00000000E+00  0.00000000E+00
  0.00000000E+00  0.00000000E+00  0.00000000E+00
