Graphene-B4C3 Bridge with lattice parame
   1.00000000000000     
     4.2002232083545259    2.4249999999999994    0.0000000000000000
    -4.2002232083545259    2.4249999999999994    0.0000000000000000
     0.0000000000000000    0.0000000000000000   15.0000000000000000
   B    C 
     4    11
Direct
  0.0041480194219092  0.0026709085043420  0.1197276721008493
  0.3563196956314585  0.0028429672891373  0.0976529502761550
  0.0041896418382360  0.3549744431563611  0.0976850008736554
  0.6520166863625505  0.6505805949894843  0.0976626401752310
  0.3264215490128186  0.3249395039314742  0.1003030940119743
  0.6821290435321826  0.0028180588745060  0.1003005479462316
  0.0041685943803511  0.6805252557955770  0.1002715829029635
  0.0833250459474430  0.4167216498127991  0.3364650669021459
  0.2500861690344789  0.2501284376121163  0.3365130031447158
  0.0834137325106208  0.9167305210685658  0.3364595167775519
  0.2501468863271896  0.7499785770440287  0.3364519108065976
  0.5833095061435143  0.4166562209191743  0.3364445926872413
  0.7499671070697995  0.2500013851215941  0.3364641950907025
  0.5832133981074696  0.9166412169598900  0.3365013727035748
  0.7497722580132993  0.7498909255876465  0.3364761869337461
 
  0.00000000E+00  0.00000000E+00  0.00000000E+00
  0.00000000E+00  0.00000000E+00  0.00000000E+00
  0.00000000E+00  0.00000000E+00  0.00000000E+00
  0.00000000E+00  0.00000000E+00  0.00000000E+00
  0.00000000E+00  0.00000000E+00  0.00000000E+00
  0.00000000E+00  0.00000000E+00  0.00000000E+00
  0.00000000E+00  0.00000000E+00  0.00000000E+00
  0.00000000E+00  0.00000000E+00  0.00000000E+00
  0.00000000E+00  0.00000000E+00  0.00000000E+00
  0.00000000E+00  0.00000000E+00  0.00000000E+00
  0.00000000E+00  0.00000000E+00  0.00000000E+00
  0.00000000E+00  0.00000000E+00  0.00000000E+00
  0.00000000E+00  0.00000000E+00  0.00000000E+00
  0.00000000E+00  0.00000000E+00  0.00000000E+00
  0.00000000E+00  0.00000000E+00  0.00000000E+00
