Graphene-B4C3 Bridge with lattice parame
   1.00000000000000     
     4.2002232083545259    2.4249999999999994    0.0000000000000000
    -4.2002232083545259    2.4249999999999994    0.0000000000000000
     0.0000000000000000    0.0000000000000000   15.0000000000000000
   B    C 
     4    11
Direct
  0.0045237466505012  0.0025354966903489  0.1038118582464088
  0.3594810042059259  0.0023262576170202  0.1009178905191481
  0.0047125761069892  0.3573456848235289  0.1013725730389632
  0.6499756133387373  0.6472314930116567  0.1012422411233139
  0.3285791554570695  0.3261236748276017  0.1014036486849403
  0.6807541320561092  0.0021924704781095  0.1018504663403532
  0.0046667274147636  0.6785729789423764  0.1015153040630282
  0.0828651247450700  0.4170504975331347  0.3366091057102336
  0.2495778010398220  0.2504007437019787  0.3367999038540810
  0.0828847199669655  0.9170475839660623  0.3367067003676282
  0.2495937346704112  0.7503668128996098  0.3365681233716296
  0.5829203521229588  0.4170333880712390  0.3366059550034311
  0.7495689422879807  0.2503310920453645  0.3365583731636289
  0.5829430562713682  0.9171472659864535  0.3367680809051455
  0.7495806469986491  0.7503952260722118  0.3366491089414020
 
  0.00000000E+00  0.00000000E+00  0.00000000E+00
  0.00000000E+00  0.00000000E+00  0.00000000E+00
  0.00000000E+00  0.00000000E+00  0.00000000E+00
  0.00000000E+00  0.00000000E+00  0.00000000E+00
  0.00000000E+00  0.00000000E+00  0.00000000E+00
  0.00000000E+00  0.00000000E+00  0.00000000E+00
  0.00000000E+00  0.00000000E+00  0.00000000E+00
  0.00000000E+00  0.00000000E+00  0.00000000E+00
  0.00000000E+00  0.00000000E+00  0.00000000E+00
  0.00000000E+00  0.00000000E+00  0.00000000E+00
  0.00000000E+00  0.00000000E+00  0.00000000E+00
  0.00000000E+00  0.00000000E+00  0.00000000E+00
  0.00000000E+00  0.00000000E+00  0.00000000E+00
  0.00000000E+00  0.00000000E+00  0.00000000E+00
  0.00000000E+00  0.00000000E+00  0.00000000E+00
