Graphene-B4C3 Bridge with lattice parame
   1.00000000000000     
     4.2002232083545259    2.4249999999999994    0.0000000000000000
    -4.2002232083545259    2.4249999999999994    0.0000000000000000
     0.0000000000000000    0.0000000000000000   15.0000000000000000
   B    C 
     4    11
Direct
  0.0465479795561449 -0.0373691215362119  0.1041248489792946
  0.4017102168435732 -0.0370860675641452  0.1014570862155608
  0.0462943230926577  0.3175022775270780  0.1014385931079376
  0.6916900906991631  0.6074786720734685  0.1014471505511180
  0.3702393966402867  0.2860356669617943  0.1017011841165989
  0.7231556497274784 -0.0371060547913971  0.1017062480824002
  0.0462236956248527  0.6389144116072448  0.1017060978820662
  0.0462774344717399  0.4518005067315058  0.3364751764624895
  0.2129433195210503  0.2851838412519460  0.3365009635792500
  0.0462608407300794  0.9517983944698281  0.3364534752341413
  0.2129823211500901  0.7851292019363344  0.3365236535234316
  0.5462664758482896  0.4518313811652059  0.3365010035187360
  0.7129277354621905  0.2851187567684111  0.3363697190478361
  0.5462307695802646  0.9517892699029855  0.3364675477645095
  0.7128770843854617  0.7850795301626496  0.3365065852679655
 
  0.00000000E+00  0.00000000E+00  0.00000000E+00
  0.00000000E+00  0.00000000E+00  0.00000000E+00
  0.00000000E+00  0.00000000E+00  0.00000000E+00
  0.00000000E+00  0.00000000E+00  0.00000000E+00
  0.00000000E+00  0.00000000E+00  0.00000000E+00
  0.00000000E+00  0.00000000E+00  0.00000000E+00
  0.00000000E+00  0.00000000E+00  0.00000000E+00
  0.00000000E+00  0.00000000E+00  0.00000000E+00
  0.00000000E+00  0.00000000E+00  0.00000000E+00
  0.00000000E+00  0.00000000E+00  0.00000000E+00
  0.00000000E+00  0.00000000E+00  0.00000000E+00
  0.00000000E+00  0.00000000E+00  0.00000000E+00
  0.00000000E+00  0.00000000E+00  0.00000000E+00
  0.00000000E+00  0.00000000E+00  0.00000000E+00
  0.00000000E+00  0.00000000E+00  0.00000000E+00
