Graphene-Borophene Hollow 1 with lattice
   1.00000000000000     
     4.2954860027708150    2.4799999999999995    0.0000000000000000
    -4.2954860027708150    2.4799999999999995    0.0000000000000000
     0.0000000000000000    0.0000000000000000   15.0000000000000000
   B    C 
     8     8
Direct
  0.6709206129876563 -0.0021635661381566  0.1675370319696779
  0.3332665631263372 -0.0020297617539047  0.1675731592442468
  0.0021635661381566  0.3290783870123465  0.1675370319696779
  0.0020297617539047  0.6667324368736661  0.1675731592442468
  0.3329703745266396  0.3289380667750909  0.1671455583157607
  0.6710609332249117  0.6670286254733628  0.1671455583157607
  0.6685089013587937  0.3314900986412087  0.1548931817093848
  0.3352468164217349  0.6647521835782680  0.1805927655564479
  0.2757081641700581  0.2242353351154265  0.4020316220549473
  0.4425065114713586  0.0576535200691353  0.4021479384474521
  0.2758171055739410  0.7241818944260614  0.4022461053931219
  0.4424307644833683  0.5575682355166340  0.4022266758691094
  0.7757528492271781  0.2242461507728244  0.4020616282748348
  0.9423898196094515  0.0576091803905514  0.4019090231329422
  0.7757636648845757  0.7242908358299449  0.4020316220549473
  0.9423454799308670  0.5574924885286441  0.4021479384474521
 
  0.00000000E+00  0.00000000E+00  0.00000000E+00
  0.00000000E+00  0.00000000E+00  0.00000000E+00
  0.00000000E+00  0.00000000E+00  0.00000000E+00
  0.00000000E+00  0.00000000E+00  0.00000000E+00
  0.00000000E+00  0.00000000E+00  0.00000000E+00
  0.00000000E+00  0.00000000E+00  0.00000000E+00
  0.00000000E+00  0.00000000E+00  0.00000000E+00
  0.00000000E+00  0.00000000E+00  0.00000000E+00
  0.00000000E+00  0.00000000E+00  0.00000000E+00
  0.00000000E+00  0.00000000E+00  0.00000000E+00
  0.00000000E+00  0.00000000E+00  0.00000000E+00
  0.00000000E+00  0.00000000E+00  0.00000000E+00
  0.00000000E+00  0.00000000E+00  0.00000000E+00
  0.00000000E+00  0.00000000E+00  0.00000000E+00
  0.00000000E+00  0.00000000E+00  0.00000000E+00
  0.00000000E+00  0.00000000E+00  0.00000000E+00
