Graphene-B4C3 Top with lattice parameter
   1.00000000000000     
     4.1612520651842271    2.4024999999999999    0.0000000000000000
    -4.1612520651842271    2.4024999999999999    0.0000000000000000
     0.0000000000000000    0.0000000000000000   15.0000000000000000
   B    C 
     4    11
Direct
  0.0040247652572705  0.0026820779680940  0.1076746188304955
  0.3588647376810493  0.0029080339683449  0.0994007244251082
  0.0037907172082949  0.3572861588327773  0.0994015356698981
  0.6494179079422852  0.6478467981629801  0.0993972276722003
  0.3279614303241950  0.3263701136502380  0.1003104898754515
  0.6803432652802510  0.0029274136092891  0.1003080908236838
  0.0037831606885802  0.6787489978019136  0.1003049629460641
  0.0001547645848416  0.5000771415224153  0.3345950473936068
  0.1668185863617043  0.3334827968421448  0.3346333945518448
  0.0001388369782845  0.0000823276951960  0.3345447596798055
  0.1668570697104063  0.8334026968593895  0.3346373959083720
  0.5001461572896758  0.5001068561465385  0.3345979204389931
  0.6668049804188649  0.3334171776086498  0.3344792674473938
  0.5001154300078898  0.0000663487218302  0.3345938437661795
  0.6667388569331004  0.8333623939435255  0.3346333872375848
 
  0.00000000E+00  0.00000000E+00  0.00000000E+00
  0.00000000E+00  0.00000000E+00  0.00000000E+00
  0.00000000E+00  0.00000000E+00  0.00000000E+00
  0.00000000E+00  0.00000000E+00  0.00000000E+00
  0.00000000E+00  0.00000000E+00  0.00000000E+00
  0.00000000E+00  0.00000000E+00  0.00000000E+00
  0.00000000E+00  0.00000000E+00  0.00000000E+00
  0.00000000E+00  0.00000000E+00  0.00000000E+00
  0.00000000E+00  0.00000000E+00  0.00000000E+00
  0.00000000E+00  0.00000000E+00  0.00000000E+00
  0.00000000E+00  0.00000000E+00  0.00000000E+00
  0.00000000E+00  0.00000000E+00  0.00000000E+00
  0.00000000E+00  0.00000000E+00  0.00000000E+00
  0.00000000E+00  0.00000000E+00  0.00000000E+00
  0.00000000E+00  0.00000000E+00  0.00000000E+00
