Graphene-Borophene Top with lattice para
   1.00000000000000     
     4.3067443330200126    2.4864999999999999    0.0000000000000000
    -4.3067443330200126    2.4864999999999999    0.0000000000000000
     0.0000000000000000    0.0000000000000000   15.0000000000000000
   B    C 
     8     8
Direct
  0.6685836194050796  0.0000312610803986  0.1672802379062431
  0.3314466416753213  0.0000312610803986  0.1672802379062431
 -0.0000312610803986  0.3314153805949225  0.1672802379062431
 -0.0000312610803986  0.6685523583246814  0.1672802379062431
  0.3314466416753213  0.3314153805949225  0.1672802379062431
  0.6685836194050796  0.6685523583246814  0.1672802379062431
  0.6666659999999993  0.3333330000000032  0.1539899578196621
  0.3333330000000032  0.6666659999999993  0.1804443955154492
  0.1666504587342156  0.3333019174684358  0.4005160288536491
  0.3333314295475404  0.1666652147737679  0.4004161920063513
  0.1666504587342156  0.8333485412657868  0.4005160288536491
  0.3333330000000032  0.6666659999999993  0.4005632253011078
  0.6666659999999993  0.3333330000000032  0.4003909980130137
  0.8333337852262346  0.1666652147737679  0.4004161920063513
  0.6666970825315668  0.8333485412657868  0.4005160288536491
  0.8333337852262346  0.6666675704524618  0.4004161920063513
 
  0.00000000E+00  0.00000000E+00  0.00000000E+00
  0.00000000E+00  0.00000000E+00  0.00000000E+00
  0.00000000E+00  0.00000000E+00  0.00000000E+00
  0.00000000E+00  0.00000000E+00  0.00000000E+00
  0.00000000E+00  0.00000000E+00  0.00000000E+00
  0.00000000E+00  0.00000000E+00  0.00000000E+00
  0.00000000E+00  0.00000000E+00  0.00000000E+00
  0.00000000E+00  0.00000000E+00  0.00000000E+00
  0.00000000E+00  0.00000000E+00  0.00000000E+00
  0.00000000E+00  0.00000000E+00  0.00000000E+00
  0.00000000E+00  0.00000000E+00  0.00000000E+00
  0.00000000E+00  0.00000000E+00  0.00000000E+00
  0.00000000E+00  0.00000000E+00  0.00000000E+00
  0.00000000E+00  0.00000000E+00  0.00000000E+00
  0.00000000E+00  0.00000000E+00  0.00000000E+00
  0.00000000E+00  0.00000000E+00  0.00000000E+00
