Graphene-Borophene Hollow 2 with lattice
   1.00000000000000     
     4.3561077810357238    2.5149999999999988    0.0000000000000000
    -4.3561077810357238    2.5149999999999988    0.0000000000000000
     0.0000000000000000    0.0000000000000000   15.0000000000000000
   B    C 
     8     8
Direct
  0.6692044715775621  0.0000763992645325  0.1546703061201308
  0.3308709276869728  0.0000763992645325  0.1546703061201308
 -0.0000763992645325  0.3307945284224404  0.1546703061201308
 -0.0000763992645325  0.6691280723130296  0.1546703061201308
  0.3308709276869728  0.3307945284224404  0.1546703061201308
  0.6692044715775621  0.6691280723130296  0.1546703061201308
  0.6666659999999993  0.3333330000000032  0.1757152588331275
  0.3333330000000032  0.6666659999999993  0.1481573186868400
  0.3382427991640085  0.1691213995820114  0.4145339395929148
  0.4989789672460948 -0.0020420655078104  0.4137139851199521
  0.3333326666666636  0.6666663333333389  0.4128346599503346
  0.4989789672460948  0.5010200327539077  0.4137139851199521
  0.8308776004179912  0.1691213995820114  0.4145339395929148
  0.9999996666666675  0.9999993333333350  0.4153271516703034
  0.8308776004179912  0.6617562008359937  0.4145339395929148
  0.0020410655078130  0.5010200327539077  0.4137139851199521
 
  0.00000000E+00  0.00000000E+00  0.00000000E+00
  0.00000000E+00  0.00000000E+00  0.00000000E+00
  0.00000000E+00  0.00000000E+00  0.00000000E+00
  0.00000000E+00  0.00000000E+00  0.00000000E+00
  0.00000000E+00  0.00000000E+00  0.00000000E+00
  0.00000000E+00  0.00000000E+00  0.00000000E+00
  0.00000000E+00  0.00000000E+00  0.00000000E+00
  0.00000000E+00  0.00000000E+00  0.00000000E+00
  0.00000000E+00  0.00000000E+00  0.00000000E+00
  0.00000000E+00  0.00000000E+00  0.00000000E+00
  0.00000000E+00  0.00000000E+00  0.00000000E+00
  0.00000000E+00  0.00000000E+00  0.00000000E+00
  0.00000000E+00  0.00000000E+00  0.00000000E+00
  0.00000000E+00  0.00000000E+00  0.00000000E+00
  0.00000000E+00  0.00000000E+00  0.00000000E+00
  0.00000000E+00  0.00000000E+00  0.00000000E+00
