Graphene-Borophene Hollow 2 with lattice
   1.00000000000000     
     4.3561086470611299    2.5150005000000002    0.0000000000000000
    -4.3561086470611299    2.5150005000000002    0.0000000000000000
     0.0000000000000000    0.0000000000000000   15.0000000000000000
   B    C 
     8     8
Direct
  0.6688868879072842  0.0000000000000000  0.1000000000000014
  0.3311121120927183  0.0000000000000000  0.1000000000000014
  0.0000000000000000  0.3311121120927183  0.1000000000000014
  0.0000000000000000  0.6688868879072842  0.1000000000000014
  0.3311121120927183  0.3311121120927183  0.1000000000000014
  0.6688868879072842  0.6688868879072842  0.1000000000000014
  0.6666659999999993  0.3333330000000032  0.0992218869917920
  0.3333330000000032  0.6666659999999993  0.1007781130082108
  0.3333326666666636  0.1666663333333389  0.4705999999999975
  0.4999996666666675  0.9999993333333350  0.4705999999999975
  0.3333326666666636  0.6666663333333389  0.4705999999999975
  0.4999996666666675  0.4999993333333350  0.4705999999999975
  0.8333326666666636  0.1666663333333389  0.4705999999999975
  0.9999996666666675  0.9999993333333350  0.4705999999999975
  0.8333326666666636  0.6666663333333389  0.4705999999999975
  0.9999996666666675  0.4999993333333350  0.4705999999999975
 
  0.00000000E+00  0.00000000E+00  0.00000000E+00
  0.00000000E+00  0.00000000E+00  0.00000000E+00
  0.00000000E+00  0.00000000E+00  0.00000000E+00
  0.00000000E+00  0.00000000E+00  0.00000000E+00
  0.00000000E+00  0.00000000E+00  0.00000000E+00
  0.00000000E+00  0.00000000E+00  0.00000000E+00
  0.00000000E+00  0.00000000E+00  0.00000000E+00
  0.00000000E+00  0.00000000E+00  0.00000000E+00
  0.00000000E+00  0.00000000E+00  0.00000000E+00
  0.00000000E+00  0.00000000E+00  0.00000000E+00
  0.00000000E+00  0.00000000E+00  0.00000000E+00
  0.00000000E+00  0.00000000E+00  0.00000000E+00
  0.00000000E+00  0.00000000E+00  0.00000000E+00
  0.00000000E+00  0.00000000E+00  0.00000000E+00
  0.00000000E+00  0.00000000E+00  0.00000000E+00
  0.00000000E+00  0.00000000E+00  0.00000000E+00
