Graphene-B4C3 Hollow 2 with lattice para
   1.00000000000000     
     4.1837687256826230    2.4155000000000002    0.0000000000000000
    -4.1837687256826230    2.4155000000000002    0.0000000000000000
     0.0000000000000000    0.0000000000000000   15.0000000000000000
   B    C 
     4    11
Direct
  0.0044214030708930  0.0029371825183824  0.0993565846153646
  0.3595702327639803  0.0029416266169532  0.1012676776673954
  0.0044277869397584  0.3580848329378884  0.1012698337958553
  0.6492809404063452  0.6477948318395570  0.1012741858109236
  0.3282342267871302  0.3267457835582761  0.1009787252799454
  0.6806278644250913  0.0029480510668326  0.1009788397025484
  0.0044379417423472  0.6791423560368509  0.1009793983905952
  0.1664316099911039  0.3331865259888731  0.3381689690610055
  0.3331186078459294  0.1665005818414947  0.3381707856901182
  0.1664706703617005  0.8332069317426681  0.3381731849416070
  0.3331215157399494  0.6665235948471173  0.3380593601280492
  0.6664553306384357  0.3331884513981094  0.3380593621194233
  0.8331383051875492  0.1665380140473179  0.3381725492651138
  0.6664560937592011  0.8331710369310461  0.3381688614129194
  0.8331014703405927  0.6665241986286445  0.3381676821191625
 
  0.00000000E+00  0.00000000E+00  0.00000000E+00
  0.00000000E+00  0.00000000E+00  0.00000000E+00
  0.00000000E+00  0.00000000E+00  0.00000000E+00
  0.00000000E+00  0.00000000E+00  0.00000000E+00
  0.00000000E+00  0.00000000E+00  0.00000000E+00
  0.00000000E+00  0.00000000E+00  0.00000000E+00
  0.00000000E+00  0.00000000E+00  0.00000000E+00
  0.00000000E+00  0.00000000E+00  0.00000000E+00
  0.00000000E+00  0.00000000E+00  0.00000000E+00
  0.00000000E+00  0.00000000E+00  0.00000000E+00
  0.00000000E+00  0.00000000E+00  0.00000000E+00
  0.00000000E+00  0.00000000E+00  0.00000000E+00
  0.00000000E+00  0.00000000E+00  0.00000000E+00
  0.00000000E+00  0.00000000E+00  0.00000000E+00
  0.00000000E+00  0.00000000E+00  0.00000000E+00
