Graphene-B4C3 Hollow 1 with lattice para
   1.00000000000000     
     4.2140796148150779    2.4329999999999998    0.0000000000000000
    -4.2140796148150779    2.4329999999999998    0.0000000000000000
     0.0000000000000000    0.0000000000000000   15.0000000000000000
   B    C 
     4    11
Direct
  0.0370159625384183 -0.0264762773681321  0.1033830347368018
  0.3920334918406884 -0.0264555306908734  0.0993893685358034
  0.0368310506917391  0.3281958130236306  0.0995150911501335
  0.6823106228484354  0.6184342576959050  0.0995111220349496
  0.3608165690124290  0.2968089069994941  0.0999529276191006
  0.7137099768222807 -0.0263101612019106  0.1002432630796115
  0.0372765187368637  0.6500284175846502  0.1000031688817441
  0.0823775254352081  0.4145425905067354  0.3385474671107790
  0.2489019855832059  0.2477896887967126  0.3390031075001990
  0.0823208253294284  0.9146135258694463  0.3387427460924209
  0.2489198443650382  0.7479281883789578  0.3387629727589667
  0.5822234511010145  0.4145774149187383  0.3385919762963204
  0.7489374392550748  0.2479418504577711  0.3386359999087435
  0.5822220488218357  0.9143939478204532  0.3386415727415565
  0.7489522431738890  0.7478658116528892  0.3388555148861908
 
  0.00000000E+00  0.00000000E+00  0.00000000E+00
  0.00000000E+00  0.00000000E+00  0.00000000E+00
  0.00000000E+00  0.00000000E+00  0.00000000E+00
  0.00000000E+00  0.00000000E+00  0.00000000E+00
  0.00000000E+00  0.00000000E+00  0.00000000E+00
  0.00000000E+00  0.00000000E+00  0.00000000E+00
  0.00000000E+00  0.00000000E+00  0.00000000E+00
  0.00000000E+00  0.00000000E+00  0.00000000E+00
  0.00000000E+00  0.00000000E+00  0.00000000E+00
  0.00000000E+00  0.00000000E+00  0.00000000E+00
  0.00000000E+00  0.00000000E+00  0.00000000E+00
  0.00000000E+00  0.00000000E+00  0.00000000E+00
  0.00000000E+00  0.00000000E+00  0.00000000E+00
  0.00000000E+00  0.00000000E+00  0.00000000E+00
  0.00000000E+00  0.00000000E+00  0.00000000E+00
