Graphene-B4C3 Hollow 2 with lattice para
   1.00000000000000     
     4.2175437164302139    2.4349999999999987    0.0000000000000000
    -4.2175437164302139    2.4349999999999987    0.0000000000000000
     0.0000000000000000    0.0000000000000000   15.0000000000000000
   B    C 
     4    11
Direct
  0.0044449201787049  0.0029658658956026  0.0997622930830990
  0.3595794899550386  0.0029609277204961  0.1007591099300155
  0.0044473690083087  0.3580813957691109  0.1007611840085396
  0.6493135101628084  0.6478270286845662  0.1007656272240031
  0.3278748151753308  0.3263812786468403  0.1005846596722230
  0.6810236024998725  0.0029754539739759  0.1005882624294636
  0.0044662418486179  0.6795294282065201  0.1005895941142624
  0.1664148168130108  0.3331702498048935  0.3384548213769711
  0.3330981085109338  0.1664849158041943  0.3384566970181452
  0.1664538906544757  0.8331911037554346  0.3384589952280835
  0.3331010980775290  0.6665079100582727  0.3383488007074942
  0.6664379020770770  0.3331723994997007  0.3383489509648065
  0.8331187793981529  0.1665233187832680  0.3384583698557956
  0.6664379774788961  0.8331546979488227  0.3384548430080224
  0.8330814781612502  0.6665080254483119  0.3384537913791029
 
  0.00000000E+00  0.00000000E+00  0.00000000E+00
  0.00000000E+00  0.00000000E+00  0.00000000E+00
  0.00000000E+00  0.00000000E+00  0.00000000E+00
  0.00000000E+00  0.00000000E+00  0.00000000E+00
  0.00000000E+00  0.00000000E+00  0.00000000E+00
  0.00000000E+00  0.00000000E+00  0.00000000E+00
  0.00000000E+00  0.00000000E+00  0.00000000E+00
  0.00000000E+00  0.00000000E+00  0.00000000E+00
  0.00000000E+00  0.00000000E+00  0.00000000E+00
  0.00000000E+00  0.00000000E+00  0.00000000E+00
  0.00000000E+00  0.00000000E+00  0.00000000E+00
  0.00000000E+00  0.00000000E+00  0.00000000E+00
  0.00000000E+00  0.00000000E+00  0.00000000E+00
  0.00000000E+00  0.00000000E+00  0.00000000E+00
  0.00000000E+00  0.00000000E+00  0.00000000E+00
