Graphene-B4C3 Top with lattice parameter
   1.00000000000000     
     4.1934383332140266    2.4221132411535704    0.0029133230505486
    -4.1932641131848873    2.4218110147353982    0.0008517842427524
     0.0039105374379127    0.0118776901626919   12.6566656053939042
   B    C 
     4    11
Direct
  0.0036105417107882  0.0021942502713038  0.0777458567395067
  0.3589196640632208  0.0031899955481303  0.0684418207769793
  0.0034480976511649  0.3570769917795634  0.0684647720265953
  0.6489919576658062  0.6474769857020271  0.0684329059646881
  0.3272714329091881  0.3257602993043063  0.0693858000523325
  0.6804521212071246  0.0029277003201973  0.0694285854770055
  0.0032477206953171  0.6787021446883019  0.0694202945726319
  0.0005335800568850  0.5003202229267265  0.3477037269791865
  0.1670997430877616  0.3336612459962366  0.3480031131070817
  0.0004500917145429  0.0002689213744745  0.3479812181988273
  0.1670998074143107  0.8335549099946636  0.3479982381675982
  0.5003988896310141  0.5003336101773790  0.3477012129107617
  0.6670622147854530  0.3335742743051530  0.3472679210432321
  0.5003955423560765  0.0001883178876305  0.3476857182529835
  0.6669792617180400  0.8335374630572314  0.3479848157305956
 
  0.00000000E+00  0.00000000E+00  0.00000000E+00
  0.00000000E+00  0.00000000E+00  0.00000000E+00
  0.00000000E+00  0.00000000E+00  0.00000000E+00
  0.00000000E+00  0.00000000E+00  0.00000000E+00
  0.00000000E+00  0.00000000E+00  0.00000000E+00
  0.00000000E+00  0.00000000E+00  0.00000000E+00
  0.00000000E+00  0.00000000E+00  0.00000000E+00
  0.00000000E+00  0.00000000E+00  0.00000000E+00
  0.00000000E+00  0.00000000E+00  0.00000000E+00
  0.00000000E+00  0.00000000E+00  0.00000000E+00
  0.00000000E+00  0.00000000E+00  0.00000000E+00
  0.00000000E+00  0.00000000E+00  0.00000000E+00
  0.00000000E+00  0.00000000E+00  0.00000000E+00
  0.00000000E+00  0.00000000E+00  0.00000000E+00
  0.00000000E+00  0.00000000E+00  0.00000000E+00
