Graphene-B4C3 Hollow 1 with lattice para
   1.00000000000000     
     4.1222809220139274    2.3799999999999999    0.0000000000000000
    -4.1222809220139274    2.3799999999999999    0.0000000000000000
     0.0000000000000000    0.0000000000000000   15.0000000000000000
   B    C 
     4    11
Direct
  0.0591099120230352 -0.0463547239398900  0.1159301064571234
  0.4125061496356455 -0.0463412864828949  0.0969943702905466
  0.0590084739552618  0.3068507154597241  0.0968132500910715
  0.7061286397980160  0.6003379686721113  0.0968648793467650
  0.3829929877320085  0.2770924292049033  0.0991612220389408
  0.7359090165762990 -0.0462016234306078  0.0990491511602494
  0.0591173127787035  0.6297698099314272  0.0991603706259672
  0.0629222050947456  0.4319137224942151  0.3385112167002099
  0.2296275476824829  0.2652984902254647  0.3384854614985103
  0.0629985290465084  0.9319734220900026  0.3383886750997788
  0.2296350669677171  0.7652533691803182  0.3385130823440788
  0.5629099453387116  0.4319275583964713  0.3385426986435512
  0.7296263777114228  0.2653329953231384  0.3383854519687909
  0.5628975035390027  0.9318267149679532  0.3385060061679042
  0.7294598876759895  0.7651988823521311  0.3384733908998327
 
  0.00000000E+00  0.00000000E+00  0.00000000E+00
  0.00000000E+00  0.00000000E+00  0.00000000E+00
  0.00000000E+00  0.00000000E+00  0.00000000E+00
  0.00000000E+00  0.00000000E+00  0.00000000E+00
  0.00000000E+00  0.00000000E+00  0.00000000E+00
  0.00000000E+00  0.00000000E+00  0.00000000E+00
  0.00000000E+00  0.00000000E+00  0.00000000E+00
  0.00000000E+00  0.00000000E+00  0.00000000E+00
  0.00000000E+00  0.00000000E+00  0.00000000E+00
  0.00000000E+00  0.00000000E+00  0.00000000E+00
  0.00000000E+00  0.00000000E+00  0.00000000E+00
  0.00000000E+00  0.00000000E+00  0.00000000E+00
  0.00000000E+00  0.00000000E+00  0.00000000E+00
  0.00000000E+00  0.00000000E+00  0.00000000E+00
  0.00000000E+00  0.00000000E+00  0.00000000E+00
