BC3 with lattice parameter 5.169        
   1.00000000000000     
     4.4764850000000003    2.5844999999999998    0.0000000000000000
    -4.4764850000000003    2.5844999999999998    0.0000000000000000
     0.0000000000000000    0.0000000000000000   15.0000000000000000
   B    C 
     2     6
Direct
  0.3383345230329936  0.6691650892231363  0.2500000000000000
  0.6716660888234279  0.3358318351425424  0.2500000000000000
  0.1637459124143983  0.3199992893505608  0.2500000000000000
  0.3224997677565347  0.1612494002017609  0.2500000000000000
  0.1637529287802435  0.8437483365684126  0.2500000000000000
  0.8462454961658571  0.1612514261805895  0.2500000000000000
  0.6874997443838164  0.8437510446767246  0.2500000000000000
  0.8462515386427306  0.6849995786562716  0.2500000000000000
 
  0.00000000E+00  0.00000000E+00  0.00000000E+00
  0.00000000E+00  0.00000000E+00  0.00000000E+00
  0.00000000E+00  0.00000000E+00  0.00000000E+00
  0.00000000E+00  0.00000000E+00  0.00000000E+00
  0.00000000E+00  0.00000000E+00  0.00000000E+00
  0.00000000E+00  0.00000000E+00  0.00000000E+00
  0.00000000E+00  0.00000000E+00  0.00000000E+00
  0.00000000E+00  0.00000000E+00  0.00000000E+00
