Graphene-B4C3 Top with lattice parameter
   1.00000000000000     
     4.1967591067393899    2.4230000000000000    0.0000000000000000
    -4.1967591067393899    2.4230000000000000    0.0000000000000000
     0.0000000000000000    0.0000000000000000   15.0000000000000000
   B    C 
     4    11
Direct
  0.0040565264971550  0.0026973426677613  0.1015010599725337
  0.3592454943976371  0.0029787041833775  0.1007114085925378
  0.0037678318271037  0.3575995130750567  0.1007121690269986
  0.6491481768132735  0.6475062740020151  0.1007086017073830
  0.3277847569300641  0.3261441447265996  0.1007308620386451
  0.6806018782821388  0.0029748903958764  0.1007305422685538
  0.0037705582332333  0.6789592123307384  0.1007278578460998
  0.0001325946067144  0.5000630361044923  0.3351153309668448
  0.1667838639874838  0.3334528425916169  0.3351500116119843
  0.0001153858753551  0.0000710384020085  0.3350759302776848
  0.1668259534243676  0.8334026966236148  0.3351539062099055
  0.5001258782521530  0.5000998549242682  0.3351181103283524
  0.6667811595634316  0.3334059414239988  0.3350130992672980
  0.5000874427973172  0.0000536501085131  0.3351136758598381
  0.6667331651792656  0.8333581917733867  0.3351501006920157

