Graphene-Borophene Hollow 1 with lattice
   1.00000000000000     
     4.3041462568086590    2.4849999999999994    0.0000000000000000
    -4.3041462568086590    2.4849999999999994    0.0000000000000000
     0.0000000000000000    0.0000000000000000   15.0000000000000000
   B    C 
     8     8
Direct
  0.6739183013879357 -0.0053711454708004  0.1674258180694466
  0.3366787476602296 -0.0052737231544889  0.1674344203628640
  0.0053711454708004  0.3260806986120667  0.1674258180694466
  0.0052737231544889  0.6633202523397729  0.1674344203628640
  0.3364767215519991  0.3260424399946770  0.1664168746921471
  0.6739565600053259  0.6635222784480034  0.1664168746921471
  0.6716542633393909  0.3283447366606113  0.1535542032210200
  0.3383107092136467  0.6616882907863559  0.1807203317578860
  0.2726540683777273  0.2275253319202155  0.4024448689267144
  0.4392741171696187  0.0607488810117193  0.4025339018568750
  0.2725291769486568  0.7274698230513453  0.4025626471824177
  0.4393098352160152  0.5606891647839876  0.4025752071027530
  0.7725061830993608  0.2274928169006416  0.4024836826128672
  0.9392445492256655  0.0607544507743371  0.4023921603069723
  0.7724736680797872  0.7273449316222744  0.4024448689267144
  0.9392501189882837  0.5607248828303835  0.4025339018568750
 
  0.00000000E+00  0.00000000E+00  0.00000000E+00
  0.00000000E+00  0.00000000E+00  0.00000000E+00
  0.00000000E+00  0.00000000E+00  0.00000000E+00
  0.00000000E+00  0.00000000E+00  0.00000000E+00
  0.00000000E+00  0.00000000E+00  0.00000000E+00
  0.00000000E+00  0.00000000E+00  0.00000000E+00
  0.00000000E+00  0.00000000E+00  0.00000000E+00
  0.00000000E+00  0.00000000E+00  0.00000000E+00
  0.00000000E+00  0.00000000E+00  0.00000000E+00
  0.00000000E+00  0.00000000E+00  0.00000000E+00
  0.00000000E+00  0.00000000E+00  0.00000000E+00
  0.00000000E+00  0.00000000E+00  0.00000000E+00
  0.00000000E+00  0.00000000E+00  0.00000000E+00
  0.00000000E+00  0.00000000E+00  0.00000000E+00
  0.00000000E+00  0.00000000E+00  0.00000000E+00
  0.00000000E+00  0.00000000E+00  0.00000000E+00
