BC3 with lattice parameter 5.169        
   1.00000000000000     
     4.4764850000000003    2.5844999999999998    0.0000000000000000
    -4.4764850000000003    2.5844999999999998    0.0000000000000000
     0.0000000000000000    0.0000000000000000   15.0000000000000000
   B    C 
     2     6
Direct
  0.3383342354851511  0.6691651058912623  0.2500000000000000
  0.6716663025223972  0.3358318630234550  0.2500000000000000
  0.1637457843207545  0.3199991957989659  0.2500000000000000
  0.3224992877239393  0.1612500659185753  0.2500000000000000
  0.1637539551621638  0.8437491787739774  0.2500000000000000
  0.8462444928987308  0.1612505898644281  0.2500000000000000
  0.6875002354838625  0.8437503405506852  0.2500000000000000
  0.8462517064030030  0.6849996601786500  0.2500000000000000
 
  0.00000000E+00  0.00000000E+00  0.00000000E+00
  0.00000000E+00  0.00000000E+00  0.00000000E+00
  0.00000000E+00  0.00000000E+00  0.00000000E+00
  0.00000000E+00  0.00000000E+00  0.00000000E+00
  0.00000000E+00  0.00000000E+00  0.00000000E+00
  0.00000000E+00  0.00000000E+00  0.00000000E+00
  0.00000000E+00  0.00000000E+00  0.00000000E+00
  0.00000000E+00  0.00000000E+00  0.00000000E+00
