k-points 45
0
Gamma
45    45    1
0    0    0