Graphene-BC3 Hollow with lattice paramet
   1.00000000000000     
     4.3682321366887082    2.5219999999999998    0.0000000000000000
    -4.3682321366887082    2.5219999999999998    0.0000000000000000
     0.0000000000000000    0.0000000000000000   15.0000000000000000
   B    C 
     2    14
Direct
  0.3382250043869784  0.6691091472532360  0.1135053054615387
  0.6715611132713623  0.3357755286879046  0.1131775834022654
  0.1645058403972747  0.3216660879442734  0.1131568988528167
  0.3240411400580021  0.1620157441021617  0.1131676270380012
  0.1645048498305095  0.8428276133706548  0.1131590721243256
  0.8453170809379797  0.1620149432986170  0.1131595097879759
  0.6856624639836223  0.8428252028105084  0.1131518098180620
  0.8453171652560552  0.6832940539408842  0.1131617204281281
  0.3334585980348099  0.1667335101326432  0.3380502655248673
  0.5001495049085084  0.0001467987534428  0.3380227210618690
  0.3334379477678762  0.6667232161170106  0.3377230399597289
  0.5001494839084579  0.5000117648572621  0.3380227344612231
  0.8334323891046175  0.1667347995086884  0.3380453232364858
  0.0001094854916293  0.0000592279003314  0.3380277296155197
  0.8334324343770414  0.6667060943586243  0.3380453651025533
  0.0000208316186094  0.5000149336304520  0.3380232941246393
 
  0.00000000E+00  0.00000000E+00  0.00000000E+00
  0.00000000E+00  0.00000000E+00  0.00000000E+00
  0.00000000E+00  0.00000000E+00  0.00000000E+00
  0.00000000E+00  0.00000000E+00  0.00000000E+00
  0.00000000E+00  0.00000000E+00  0.00000000E+00
  0.00000000E+00  0.00000000E+00  0.00000000E+00
  0.00000000E+00  0.00000000E+00  0.00000000E+00
  0.00000000E+00  0.00000000E+00  0.00000000E+00
  0.00000000E+00  0.00000000E+00  0.00000000E+00
  0.00000000E+00  0.00000000E+00  0.00000000E+00
  0.00000000E+00  0.00000000E+00  0.00000000E+00
  0.00000000E+00  0.00000000E+00  0.00000000E+00
  0.00000000E+00  0.00000000E+00  0.00000000E+00
  0.00000000E+00  0.00000000E+00  0.00000000E+00
  0.00000000E+00  0.00000000E+00  0.00000000E+00
  0.00000000E+00  0.00000000E+00  0.00000000E+00
