k-points 51
0
Gamma
51    51    1
0    0    0