Graphene-Borophene Bridge with lattice p
   1.00000000000000     
     4.3561077810357265    2.5150000000000001    0.0000000000000000
    -4.3561077810357265    2.5150000000000001    0.0000000000000000
     0.0000000000000000    0.0000000000000000   15.0000000000000000
   B    C 
     8     8
Direct
  0.6721362434067717 -0.0031746675851053  0.1662575353295185
  0.3341866215916989 -0.0031607693846936  0.1665518533231778
  0.0031746675851053  0.3278627565932306  0.1662575353295185
  0.0031607693846936  0.6658123784083037  0.1665518533231778
  0.3340821859304118  0.3278085173040140  0.1664750097423746
  0.6721904826959886  0.6659168140695911  0.1664750097423746
  0.6696268132737919  0.3303721867262104  0.1654720092256783
  0.3363192592210612  0.6636797407789415  0.1674453995848468
  0.2468956978337173  0.2531044809660516  0.4025875525150803
  0.4135986635770306  0.0865072318900180  0.4026784314236198
  0.2468900439075438  0.7531089560924593  0.4026852452657784
  0.4135884844335077  0.5864105155664945  0.4026717600937725
  0.7468444481680755  0.2531545518319270  0.4026510819494073
  0.9135789985133702  0.0864200014866323  0.4025070725463464
  0.7468945190339509  0.7531033021662851  0.4025875525150803
  0.9134917681099850  0.5864003364229721  0.4026784314236198
 
  0.00000000E+00  0.00000000E+00  0.00000000E+00
  0.00000000E+00  0.00000000E+00  0.00000000E+00
  0.00000000E+00  0.00000000E+00  0.00000000E+00
  0.00000000E+00  0.00000000E+00  0.00000000E+00
  0.00000000E+00  0.00000000E+00  0.00000000E+00
  0.00000000E+00  0.00000000E+00  0.00000000E+00
  0.00000000E+00  0.00000000E+00  0.00000000E+00
  0.00000000E+00  0.00000000E+00  0.00000000E+00
  0.00000000E+00  0.00000000E+00  0.00000000E+00
  0.00000000E+00  0.00000000E+00  0.00000000E+00
  0.00000000E+00  0.00000000E+00  0.00000000E+00
  0.00000000E+00  0.00000000E+00  0.00000000E+00
  0.00000000E+00  0.00000000E+00  0.00000000E+00
  0.00000000E+00  0.00000000E+00  0.00000000E+00
  0.00000000E+00  0.00000000E+00  0.00000000E+00
  0.00000000E+00  0.00000000E+00  0.00000000E+00
