Graphene-B4C3 Hollow 2 with lattice para
   1.00000000000000     
     4.2435244785437467    2.4499999999999984    0.0000000000000000
    -4.2435244785437467    2.4499999999999984    0.0000000000000000
     0.0000000000000000    0.0000000000000000   15.0000000000000000
   B    C 
     4    11
Direct
  0.0044408624715185  0.0029501004662977  0.0996554355861236
  0.3595343854351954  0.0029552631973953  0.1004440512863612
  0.0044525026834749  0.3580451070841614  0.1004462109515110
  0.6493504962710240  0.6478529339389523  0.1004503672724069
  0.3276029312305160  0.3261083119935554  0.1002929577323246
  0.6812841442286537  0.0029460966222490  0.1002911481873438
  0.0044403255567947  0.6797892622027487  0.1002908248188599
  0.1664154584380681  0.3331820213623357  0.3386953633271688
  0.3331076599816841  0.1664901758983103  0.3386970924993389
  0.1664624899843285  0.8332060772033064  0.3386992632349326
  0.3331076586744740  0.6665148876327150  0.3385977556236399
  0.6664384250049816  0.3331811726652315  0.3385976642431740
  0.8331308661029109  0.1665372420179179  0.3386987389542707
  0.6664385016253317  0.8331612181674287  0.3386950443679204
  0.8330872923110523  0.6665141295474072  0.3386940819146510
 
  0.00000000E+00  0.00000000E+00  0.00000000E+00
  0.00000000E+00  0.00000000E+00  0.00000000E+00
  0.00000000E+00  0.00000000E+00  0.00000000E+00
  0.00000000E+00  0.00000000E+00  0.00000000E+00
  0.00000000E+00  0.00000000E+00  0.00000000E+00
  0.00000000E+00  0.00000000E+00  0.00000000E+00
  0.00000000E+00  0.00000000E+00  0.00000000E+00
  0.00000000E+00  0.00000000E+00  0.00000000E+00
  0.00000000E+00  0.00000000E+00  0.00000000E+00
  0.00000000E+00  0.00000000E+00  0.00000000E+00
  0.00000000E+00  0.00000000E+00  0.00000000E+00
  0.00000000E+00  0.00000000E+00  0.00000000E+00
  0.00000000E+00  0.00000000E+00  0.00000000E+00
  0.00000000E+00  0.00000000E+00  0.00000000E+00
  0.00000000E+00  0.00000000E+00  0.00000000E+00
