Graphene-BC3 Top with lattice parameter 
   1.00000000000000     
     4.3708302129000609    2.5234999999999999    0.0000000000000000
    -4.3708302129000609    2.5234999999999999    0.0000000000000000
     0.0000000000000000    0.0000000000000000   15.0000000000000000
   B    C 
     2    14
Direct
  0.3383346058902577  0.6691672904651572  0.1002334207931535
  0.6716676350509053  0.3358336518310686  0.1002334060345954
  0.1646064503353273  0.3217066901388134  0.0999089090767319
  0.3242101121097308  0.1621052028875334  0.0999079593020409
  0.1646075647956283  0.8429003315616991  0.0999089047387469
  0.8454030667145391  0.1621025927679437  0.0999103837577101
  0.6858035044939640  0.8429007853347523  0.0999109544043986
  0.8454043882719875  0.6832997501286667  0.0999103790778160
  0.1665642747797141  0.3331358017262875  0.3288847845970624
  0.3331331733742420  0.1665663839670173  0.3288859022677310
  0.1665642761255226  0.8334280664142580  0.3288847842209940
  0.3333265128560347  0.6666630557558655  0.3285871832018070
  0.6666598945643792  0.3333297436603255  0.3285871828999906
  0.8334255150601805  0.1665669675803300  0.3288823790242389
  0.6668555152079667  0.8334275541931015  0.3288810880313059
  0.8334255103696389  0.6668581315871893  0.3288823785716965
 
  0.00000000E+00  0.00000000E+00  0.00000000E+00
  0.00000000E+00  0.00000000E+00  0.00000000E+00
  0.00000000E+00  0.00000000E+00  0.00000000E+00
  0.00000000E+00  0.00000000E+00  0.00000000E+00
  0.00000000E+00  0.00000000E+00  0.00000000E+00
  0.00000000E+00  0.00000000E+00  0.00000000E+00
  0.00000000E+00  0.00000000E+00  0.00000000E+00
  0.00000000E+00  0.00000000E+00  0.00000000E+00
  0.00000000E+00  0.00000000E+00  0.00000000E+00
  0.00000000E+00  0.00000000E+00  0.00000000E+00
  0.00000000E+00  0.00000000E+00  0.00000000E+00
  0.00000000E+00  0.00000000E+00  0.00000000E+00
  0.00000000E+00  0.00000000E+00  0.00000000E+00
  0.00000000E+00  0.00000000E+00  0.00000000E+00
  0.00000000E+00  0.00000000E+00  0.00000000E+00
  0.00000000E+00  0.00000000E+00  0.00000000E+00
