Graphene-BC3 Bridge with lattice paramet
   1.00000000000000     
     4.3587058572470800    2.5165000000000002    0.0000000000000000
    -4.3587058572470800    2.5165000000000002    0.0000000000000000
     0.0000000000000000    0.0000000000000000   15.0000000000000000
   B    C 
     2    14
Direct
  0.3194811166885896  0.6890878210345109  0.1007486653075906
  0.6528558196507502  0.3557293807494299  0.1005029514912370
  0.1458686164113784  0.3418483742456722  0.1002432271242426
  0.3054531255302408  0.1821436385933845  0.1006127116893941
  0.1458066881484133  0.8627857813516274  0.1007920898908713
  0.8264647773753561  0.1821086808526275  0.1000468808318507
  0.6667249821154694  0.8627253777063409  0.1002524512515822
  0.8263960254424588  0.7031133180754081  0.1006195072581603
  0.2688544057889715  0.2300020055944265  0.3259219825799208
  0.4354926585479745  0.0634253631039030  0.3259144989209774
  0.2688305376966934  0.7300938772892711  0.3256167523600260
  0.4355827487357596  0.5633409296505677  0.3258371399260952
  0.7688560627136726  0.2300647118095260  0.3257625481822204
  0.9355694588487667  0.0633547908900935  0.3259685996204786
  0.7689222192622244  0.7300705495987184  0.3259195442463328
  0.9354994237099863  0.5634307327878164  0.3259071159856776
 
  0.00000000E+00  0.00000000E+00  0.00000000E+00
  0.00000000E+00  0.00000000E+00  0.00000000E+00
  0.00000000E+00  0.00000000E+00  0.00000000E+00
  0.00000000E+00  0.00000000E+00  0.00000000E+00
  0.00000000E+00  0.00000000E+00  0.00000000E+00
  0.00000000E+00  0.00000000E+00  0.00000000E+00
  0.00000000E+00  0.00000000E+00  0.00000000E+00
  0.00000000E+00  0.00000000E+00  0.00000000E+00
  0.00000000E+00  0.00000000E+00  0.00000000E+00
  0.00000000E+00  0.00000000E+00  0.00000000E+00
  0.00000000E+00  0.00000000E+00  0.00000000E+00
  0.00000000E+00  0.00000000E+00  0.00000000E+00
  0.00000000E+00  0.00000000E+00  0.00000000E+00
  0.00000000E+00  0.00000000E+00  0.00000000E+00
  0.00000000E+00  0.00000000E+00  0.00000000E+00
  0.00000000E+00  0.00000000E+00  0.00000000E+00
