Graphene-Borophene Hollow 2 with lattice
   1.00000000000000     
     4.3197347140767803    2.4940000000000002    0.0000000000000000
    -4.3197347140767803    2.4940000000000002    0.0000000000000000
     0.0000000000000000    0.0000000000000000   15.0000000000000000
   B    C 
     8     8
Direct
  0.6694975780996023 -0.0000449557410310  0.1668268671243384
  0.3304564661593691 -0.0000449557410310  0.1668268671243384
  0.0000449557410310  0.3305014219004002  0.1668268671243384
  0.0000449557410310  0.6695425338406330  0.1668268671243384
  0.3304564661593691  0.3305014219004002  0.1668268671243384
  0.6694975780996023  0.6695425338406330  0.1668268671243384
  0.6666659999999993  0.3333330000000032  0.1624483940722807
  0.3333330000000032  0.6666659999999993  0.1717181702756138
  0.3333493979582479  0.1666746989791311  0.4036960838699351
  0.5000197009377506  0.0000394018755010  0.4037658438727424
  0.3333326666666636  0.6666663333333389  0.4037050730083848
  0.5000197009377506  0.4999792990622522  0.4037658438727424
  0.8333243010208718  0.1666746989791311  0.4036960838699351
  0.9999996666666675  0.9999993333333350  0.4035813766696482
  0.8333243010208718  0.6666496020417545  0.4036960838699351
 -0.0000404018754984  0.4999792990622522  0.4037658438727425
 
  0.00000000E+00  0.00000000E+00  0.00000000E+00
  0.00000000E+00  0.00000000E+00  0.00000000E+00
  0.00000000E+00  0.00000000E+00  0.00000000E+00
  0.00000000E+00  0.00000000E+00  0.00000000E+00
  0.00000000E+00  0.00000000E+00  0.00000000E+00
  0.00000000E+00  0.00000000E+00  0.00000000E+00
  0.00000000E+00  0.00000000E+00  0.00000000E+00
  0.00000000E+00  0.00000000E+00  0.00000000E+00
  0.00000000E+00  0.00000000E+00  0.00000000E+00
  0.00000000E+00  0.00000000E+00  0.00000000E+00
  0.00000000E+00  0.00000000E+00  0.00000000E+00
  0.00000000E+00  0.00000000E+00  0.00000000E+00
  0.00000000E+00  0.00000000E+00  0.00000000E+00
  0.00000000E+00  0.00000000E+00  0.00000000E+00
  0.00000000E+00  0.00000000E+00  0.00000000E+00
  0.00000000E+00  0.00000000E+00  0.00000000E+00
