Graphene-B4C3 Top with lattice parameter
   1.00000000000000     
     4.1950270559318197    2.4219999999999997    0.0000000000000000
    -4.1950270559318197    2.4219999999999997    0.0000000000000000
     0.0000000000000000    0.0000000000000000   15.0000000000000000
   B    C 
     4    11
Direct
  0.0040550038060146  0.0026997090783972  0.1014753638668985
  0.3592364701916610  0.0029741470908521  0.1005351932310679
  0.0037657779792821  0.3575904130342188  0.1005359869140765
  0.6491429881192147  0.6475074618622806  0.1005322336625328
  0.3277914899692227  0.3261541626879620  0.1005703432706073
  0.6805864644162911  0.0029757685187126  0.1005705888820135
  0.0037704422276183  0.6789432232493611  0.1005682071772237
  0.0001411729699859  0.5000658215368564  0.3348443001928937
  0.1667845331924099  0.3334514490325528  0.3348798947899020
  0.0001180722909290  0.0000729568994511  0.3348044691845717
  0.1668298806969131  0.8334078561746410  0.3348839311068199
  0.5001273764008876  0.5001064131130117  0.3348470195017826
  0.6667851844452800  0.3334080548681960  0.3347423934549474
  0.5000853067442524  0.0000495697016366  0.3348426764640071
  0.6667405032167308  0.8333603264851959  0.3348800649673371
 
  0.00000000E+00  0.00000000E+00  0.00000000E+00
  0.00000000E+00  0.00000000E+00  0.00000000E+00
  0.00000000E+00  0.00000000E+00  0.00000000E+00
  0.00000000E+00  0.00000000E+00  0.00000000E+00
  0.00000000E+00  0.00000000E+00  0.00000000E+00
  0.00000000E+00  0.00000000E+00  0.00000000E+00
  0.00000000E+00  0.00000000E+00  0.00000000E+00
  0.00000000E+00  0.00000000E+00  0.00000000E+00
  0.00000000E+00  0.00000000E+00  0.00000000E+00
  0.00000000E+00  0.00000000E+00  0.00000000E+00
  0.00000000E+00  0.00000000E+00  0.00000000E+00
  0.00000000E+00  0.00000000E+00  0.00000000E+00
  0.00000000E+00  0.00000000E+00  0.00000000E+00
  0.00000000E+00  0.00000000E+00  0.00000000E+00
  0.00000000E+00  0.00000000E+00  0.00000000E+00
