Graphene-B4C3 Hollow 2 with lattice para
   1.00000000000000     
     4.2054193607772321    2.4279999999999990    0.0000000000000000
    -4.2054193607772321    2.4279999999999990    0.0000000000000000
     0.0000000000000000    0.0000000000000000   15.0000000000000000
   B    C 
     4    11
Direct
  0.0042201289081679  0.0028083183629236  0.1053785454424781
  0.3587549519863381  0.0027978283441046  0.1004385798405885
  0.0042784560452370  0.3573980217018285  0.1004399640997128
  0.6497238531863039  0.6482595184082890  0.1004664154802951
  0.3281513203485865  0.3267550513091487  0.1013311752191966
  0.6802681721722964  0.0027044899507869  0.1013785485099640
  0.0041348744020017  0.6788724444862748  0.1013882268283033
  0.1666674530506117  0.3332360527239446  0.3375621063388966
  0.3332248523595047  0.1666756456657678  0.3375636822716010
  0.1665387557278616  0.8332859120692716  0.3375644683748317
  0.3332987733833050  0.6666462766593617  0.3375256595854288
  0.6666385820090054  0.3333112395529325  0.3375257616586709
  0.8332764862106822  0.1665482263885031  0.3375631576787247
  0.6667166162722650  0.8334106367997725  0.3375599506860523
  0.8334007239378409  0.6667243375771014  0.3375597579852823
 
  0.00000000E+00  0.00000000E+00  0.00000000E+00
  0.00000000E+00  0.00000000E+00  0.00000000E+00
  0.00000000E+00  0.00000000E+00  0.00000000E+00
  0.00000000E+00  0.00000000E+00  0.00000000E+00
  0.00000000E+00  0.00000000E+00  0.00000000E+00
  0.00000000E+00  0.00000000E+00  0.00000000E+00
  0.00000000E+00  0.00000000E+00  0.00000000E+00
  0.00000000E+00  0.00000000E+00  0.00000000E+00
  0.00000000E+00  0.00000000E+00  0.00000000E+00
  0.00000000E+00  0.00000000E+00  0.00000000E+00
  0.00000000E+00  0.00000000E+00  0.00000000E+00
  0.00000000E+00  0.00000000E+00  0.00000000E+00
  0.00000000E+00  0.00000000E+00  0.00000000E+00
  0.00000000E+00  0.00000000E+00  0.00000000E+00
  0.00000000E+00  0.00000000E+00  0.00000000E+00
