Graphene-B4C3 Hollow 2 with lattice para
   1.00000000000000     
     4.2054193607772321    2.4279999999999990    0.0000000000000000
    -4.2054193607772321    2.4279999999999990    0.0000000000000000
     0.0000000000000000    0.0000000000000000   15.0000000000000000
   B    C 
     4    11
Direct
  0.0043821988297725  0.0029117905121679  0.0995996825902421
  0.3595282412550113  0.0029217886241858  0.1009515235676374
  0.0043953865313701  0.3580618075690529  0.1009537170435974
  0.6492476472878668  0.6477742734128384  0.1009572594495328
  0.3279689403187782  0.3264993470108469  0.1007352308496997
  0.6808107656406158  0.0029147198101013  0.1007287400855857
  0.0043846122297156  0.6793404760440594  0.1007279959532327
  0.1664676322151541  0.3332069504266377  0.3383492026840269
  0.3331530877289733  0.1665208759889754  0.3383509234048511
  0.1665086786807619  0.8332318900239465  0.3383530165624755
  0.3331540295815404  0.6665431127172667  0.3382448523108730
  0.6664877432098540  0.3332080353860771  0.3382448230194696
  0.8331767611331270  0.1665628662024541  0.3383524873495018
  0.6664901466096177  0.8331917374826834  0.3383488097732023
  0.8331381287478492  0.6665443287887171  0.3383477353560992
 
  0.00000000E+00  0.00000000E+00  0.00000000E+00
  0.00000000E+00  0.00000000E+00  0.00000000E+00
  0.00000000E+00  0.00000000E+00  0.00000000E+00
  0.00000000E+00  0.00000000E+00  0.00000000E+00
  0.00000000E+00  0.00000000E+00  0.00000000E+00
  0.00000000E+00  0.00000000E+00  0.00000000E+00
  0.00000000E+00  0.00000000E+00  0.00000000E+00
  0.00000000E+00  0.00000000E+00  0.00000000E+00
  0.00000000E+00  0.00000000E+00  0.00000000E+00
  0.00000000E+00  0.00000000E+00  0.00000000E+00
  0.00000000E+00  0.00000000E+00  0.00000000E+00
  0.00000000E+00  0.00000000E+00  0.00000000E+00
  0.00000000E+00  0.00000000E+00  0.00000000E+00
  0.00000000E+00  0.00000000E+00  0.00000000E+00
  0.00000000E+00  0.00000000E+00  0.00000000E+00
