Graphene-B4C3 Hollow 2 with lattice para
   1.00000000000000     
     4.2054193607772321    2.4279999999999990    0.0000000000000000
    -4.2054193607772321    2.4279999999999990    0.0000000000000000
     0.0000000000000000    0.0000000000000000   15.0000000000000000
   B    C 
     4    11
Direct
  0.0041697579489576  0.0027125967184877  0.1195824978876773
  0.3563548273058096  0.0028281098013056  0.0976897744709698
  0.0042161442963048  0.3549152093414177  0.0976929896685153
  0.6520063897117120  0.6506326993438671  0.0976817941023045
  0.3261955334529920  0.3248098435324052  0.1003143799745497
  0.6821792845899861  0.0027918254590993  0.1002906251880736
  0.0041849110340439  0.6807537066532449  0.1002825961342146
  0.1666261445892056  0.3333805138156604  0.3372331397838310
  0.3333807327572496  0.1666275859578963  0.3372336991697456
  0.1667492193078715  0.8333659088662191  0.3372346076684833
  0.3333340292300370  0.6666692918635466  0.3371545889345701
  0.6666688342040723  0.3333321522169953  0.3371545803913418
  0.8333644794213254  0.1667479656764447  0.3372345370298646
  0.6666173592728347  0.8332488187608693  0.3372333415650832
  0.8332463528776053  0.6666177719925519  0.3372328480308026
 
  0.00000000E+00  0.00000000E+00  0.00000000E+00
  0.00000000E+00  0.00000000E+00  0.00000000E+00
  0.00000000E+00  0.00000000E+00  0.00000000E+00
  0.00000000E+00  0.00000000E+00  0.00000000E+00
  0.00000000E+00  0.00000000E+00  0.00000000E+00
  0.00000000E+00  0.00000000E+00  0.00000000E+00
  0.00000000E+00  0.00000000E+00  0.00000000E+00
  0.00000000E+00  0.00000000E+00  0.00000000E+00
  0.00000000E+00  0.00000000E+00  0.00000000E+00
  0.00000000E+00  0.00000000E+00  0.00000000E+00
  0.00000000E+00  0.00000000E+00  0.00000000E+00
  0.00000000E+00  0.00000000E+00  0.00000000E+00
  0.00000000E+00  0.00000000E+00  0.00000000E+00
  0.00000000E+00  0.00000000E+00  0.00000000E+00
  0.00000000E+00  0.00000000E+00  0.00000000E+00
