Graphene-BC3 Bridge with lattice paramet
   1.00000000000000     
     4.3621699588622169    2.5185000000000000    0.0000000000000000
    -4.3621699588622169    2.5185000000000000    0.0000000000000000
     0.0000000000000000    0.0000000000000000   15.0000000000000000
   B    C 
     2    14
Direct
  0.3196889391258058  0.6889927186549333  0.1012440644636681
  0.6531016069536801  0.3555985769847420  0.1009540002500411
  0.1460995492649820  0.3417377026481908  0.1005851622998918
  0.3057033666554548  0.1819434785657603  0.1008607259387952
  0.1460103730124319  0.8626788088014543  0.1010048162518557
  0.8267480205799524  0.1819905416416665  0.1004006581075032
  0.6669228149394292  0.8625506593787049  0.1005727264739890
  0.8267411181411940  0.7029927308138196  0.1008456722766969
  0.2686108394380231  0.2301443048248334  0.3255548513961423
  0.4352436891271281  0.0635535432591205  0.3256213265552317
  0.2685944267644561  0.7302160370346810  0.3253390319229166
  0.4353528509635324  0.5634583055346508  0.3255377365093367
  0.7686138508347407  0.2301913610840273  0.3254605924071218
  0.9352993804316196  0.0635112981032353  0.3255122627906772
  0.7686710856544359  0.7302026188309337  0.3255565589077866
  0.9352567547798379  0.5635626471725708  0.3256164801150039
 
  0.00000000E+00  0.00000000E+00  0.00000000E+00
  0.00000000E+00  0.00000000E+00  0.00000000E+00
  0.00000000E+00  0.00000000E+00  0.00000000E+00
  0.00000000E+00  0.00000000E+00  0.00000000E+00
  0.00000000E+00  0.00000000E+00  0.00000000E+00
  0.00000000E+00  0.00000000E+00  0.00000000E+00
  0.00000000E+00  0.00000000E+00  0.00000000E+00
  0.00000000E+00  0.00000000E+00  0.00000000E+00
  0.00000000E+00  0.00000000E+00  0.00000000E+00
  0.00000000E+00  0.00000000E+00  0.00000000E+00
  0.00000000E+00  0.00000000E+00  0.00000000E+00
  0.00000000E+00  0.00000000E+00  0.00000000E+00
  0.00000000E+00  0.00000000E+00  0.00000000E+00
  0.00000000E+00  0.00000000E+00  0.00000000E+00
  0.00000000E+00  0.00000000E+00  0.00000000E+00
  0.00000000E+00  0.00000000E+00  0.00000000E+00
