Graphene-B4C3 Top with lattice parameter
   1.00000000000000     
     4.1965522921475058    2.4227689679944722    0.0059329326436064
    -4.1964770204685653    2.4226386414262229    0.0013707207228756
     0.0085479321881072    0.0236022744912230   12.8142691927968801
   B    C 
     4    11
Direct
  0.0036696900456052  0.0023527394351178  0.0819014750627283
  0.3583122876358904  0.0030607229483735  0.0772390513363286
  0.0035831084432748  0.3566373909644695  0.0772652891476963
  0.6496270928498342  0.6481568054477511  0.0772186148216779
  0.3273698936847231  0.3260066028654572  0.0778438192761210
  0.6801371763410667  0.0026319148096436  0.0778217629943025
  0.0034003985584116  0.6786692238907061  0.0778153837848470
  0.0007102782006687  0.5003809819491126  0.3476134159087364
  0.1670260374626633  0.3334742473840863  0.3474865199971172
  0.0003964330335181  0.0002419823427165  0.3469977990676339
  0.1670206506379507  0.8336320285725710  0.3475102887580622
  0.5002339573743333  0.5004002508851941  0.3476253276720189
  0.6670731252771105  0.3335841220651729  0.3475034926730714
  0.5002216357113792 -0.0000877975881537  0.3476332327787198
  0.6671789014102623  0.8336261173611064  0.3475038600542870
 
  0.00000000E+00  0.00000000E+00  0.00000000E+00
  0.00000000E+00  0.00000000E+00  0.00000000E+00
  0.00000000E+00  0.00000000E+00  0.00000000E+00
  0.00000000E+00  0.00000000E+00  0.00000000E+00
  0.00000000E+00  0.00000000E+00  0.00000000E+00
  0.00000000E+00  0.00000000E+00  0.00000000E+00
  0.00000000E+00  0.00000000E+00  0.00000000E+00
  0.00000000E+00  0.00000000E+00  0.00000000E+00
  0.00000000E+00  0.00000000E+00  0.00000000E+00
  0.00000000E+00  0.00000000E+00  0.00000000E+00
  0.00000000E+00  0.00000000E+00  0.00000000E+00
  0.00000000E+00  0.00000000E+00  0.00000000E+00
  0.00000000E+00  0.00000000E+00  0.00000000E+00
  0.00000000E+00  0.00000000E+00  0.00000000E+00
  0.00000000E+00  0.00000000E+00  0.00000000E+00
