Graphene-BC3 Hollow with lattice paramet
   1.00000000000000     
     4.3682321366887082    2.5219999999999998    0.0000000000000000
    -4.3682321366887082    2.5219999999999998    0.0000000000000000
     0.0000000000000000    0.0000000000000000   15.0000000000000000
   B    C 
     2    14
Direct
  0.3382273926752912  0.6691124474726563  0.1135511588036595
  0.6715642564768419  0.3357796486402791  0.1132212081259863
  0.1645070548804160  0.3216704441749880  0.1131996835943836
  0.3240407556089552  0.1620183697332352  0.1132092023501710
  0.1645056911210120  0.8428325743696053  0.1132019611893046
  0.8453185891033492  0.1620180390250217  0.1132009329465074
  0.6856621687403232  0.8428305184569379  0.1131945094972900
  0.8453164038052045  0.6832964764022540  0.1132032701797081
  0.3334575868440947  0.1667298643396410  0.3380065234744927
  0.5001489339379953  0.0001435823779936  0.3379798189568720
  0.3334369046387547  0.6667195227047717  0.3376815375895846
  0.5001489006557766  0.5000075130914853  0.3379798326948361
  0.8334313673433115  0.1667311426476629  0.3380016551846972
  0.0001086127040025  0.0000553364182905  0.3379866715081838
  0.8334314367002017  0.6667024854711976  0.3380016781331964
  0.0000192780978037  0.5000107013406756  0.3379803557711275
 
  0.00000000E+00  0.00000000E+00  0.00000000E+00
  0.00000000E+00  0.00000000E+00  0.00000000E+00
  0.00000000E+00  0.00000000E+00  0.00000000E+00
  0.00000000E+00  0.00000000E+00  0.00000000E+00
  0.00000000E+00  0.00000000E+00  0.00000000E+00
  0.00000000E+00  0.00000000E+00  0.00000000E+00
  0.00000000E+00  0.00000000E+00  0.00000000E+00
  0.00000000E+00  0.00000000E+00  0.00000000E+00
  0.00000000E+00  0.00000000E+00  0.00000000E+00
  0.00000000E+00  0.00000000E+00  0.00000000E+00
  0.00000000E+00  0.00000000E+00  0.00000000E+00
  0.00000000E+00  0.00000000E+00  0.00000000E+00
  0.00000000E+00  0.00000000E+00  0.00000000E+00
  0.00000000E+00  0.00000000E+00  0.00000000E+00
  0.00000000E+00  0.00000000E+00  0.00000000E+00
  0.00000000E+00  0.00000000E+00  0.00000000E+00
