Graphene-Borophene Hollow 1 with lattice
   1.00000000000000     
     4.3102084346351512    2.4885000000000002    0.0000000000000000
    -4.3102084346351512    2.4885000000000002    0.0000000000000000
     0.0000000000000000    0.0000000000000000   15.0000000000000000
   B    C 
     8     8
Direct
  0.6720801081422210 -0.0035516223175681  0.1672403087784725
  0.3348339490698772 -0.0034292973013470  0.1671055374906492
  0.0035516223175681  0.3279188918577813  0.1672403087784725
  0.0034292973013470  0.6651650509301259  0.1671055374906492
  0.3345987472002303  0.3277583009021420  0.1663854517698752
  0.6722406990978607  0.6654002527997721  0.1663854517698752
  0.6698832615646209  0.3301157384353818  0.1543340850303433
  0.3366117932942704  0.6633872067057323  0.1798720910604471
  0.2743735706155871  0.2256100128971451  0.4026281535213646
  0.4410587238690073  0.0590126211665856  0.4027060544402579
  0.2743837507374947  0.7256152492625081  0.4026742133525040
  0.4410972841129767  0.5589017158870259  0.4027498635240633
  0.7743334899552290  0.2256655100447734  0.4026105424102766
  0.9410302256743671  0.0589687743256357  0.4024281926211372
  0.7743889871028574  0.7256254293844152  0.4026281535213646
  0.9409863788334170  0.5589402761309950  0.4027060544402579
 
  0.00000000E+00  0.00000000E+00  0.00000000E+00
  0.00000000E+00  0.00000000E+00  0.00000000E+00
  0.00000000E+00  0.00000000E+00  0.00000000E+00
  0.00000000E+00  0.00000000E+00  0.00000000E+00
  0.00000000E+00  0.00000000E+00  0.00000000E+00
  0.00000000E+00  0.00000000E+00  0.00000000E+00
  0.00000000E+00  0.00000000E+00  0.00000000E+00
  0.00000000E+00  0.00000000E+00  0.00000000E+00
  0.00000000E+00  0.00000000E+00  0.00000000E+00
  0.00000000E+00  0.00000000E+00  0.00000000E+00
  0.00000000E+00  0.00000000E+00  0.00000000E+00
  0.00000000E+00  0.00000000E+00  0.00000000E+00
  0.00000000E+00  0.00000000E+00  0.00000000E+00
  0.00000000E+00  0.00000000E+00  0.00000000E+00
  0.00000000E+00  0.00000000E+00  0.00000000E+00
  0.00000000E+00  0.00000000E+00  0.00000000E+00
