BC3 with lattice parameter 5.169        
   1.00000000000000     
     4.4764850000000003    2.5844999999999998    0.0000000000000000
    -4.4764850000000003    2.5844999999999998    0.0000000000000000
     0.0000000000000000    0.0000000000000000   15.0000000000000000
   B    C 
     2     6
Direct
  0.3383342157519076  0.6691650876646378  0.2500000000000000
  0.6716663073129191  0.3358318868071859  0.2500000000000000
  0.1637461422642068  0.3199998961426307  0.2500000000000000
  0.3224999088954092  0.1612503222060827  0.2500000000000000
  0.1637542902352264  0.8437488593599969  0.2500000000000000
  0.8462441724526353  0.1612509010988070  0.2500000000000000
  0.6874995908652293  0.8437500615562219  0.2500000000000000
  0.8462513722224687  0.6849989851644361  0.2500000000000000
 
  0.00000000E+00  0.00000000E+00  0.00000000E+00
  0.00000000E+00  0.00000000E+00  0.00000000E+00
  0.00000000E+00  0.00000000E+00  0.00000000E+00
  0.00000000E+00  0.00000000E+00  0.00000000E+00
  0.00000000E+00  0.00000000E+00  0.00000000E+00
  0.00000000E+00  0.00000000E+00  0.00000000E+00
  0.00000000E+00  0.00000000E+00  0.00000000E+00
  0.00000000E+00  0.00000000E+00  0.00000000E+00
