Graphene-BC3 Bridge with lattice paramet
   1.00000000000000     
     4.3864186701681822    2.5325000000000002    0.0000000000000000
    -4.3864186701681822    2.5325000000000002    0.0000000000000000
     0.0000000000000000    0.0000000000000000   15.0000000000000000
   B    C 
     2    14
Direct
  0.3242714524405829  0.6842480281119498  0.1009244683700613
  0.6576781914812468  0.3509276324064726  0.1007206334361591
  0.1505100460095211  0.3366079411132974  0.1005240543038384
  0.3098472247209644  0.1770470817730498  0.1005940705088737
  0.1504680137771163  0.8581786302498613  0.1005999613818258
  0.8314863179586514  0.1770272218662535  0.1005112097396850
  0.6719616941805514  0.8581097196185071  0.1005246946036444
  0.8314228314134019  0.6986224987000738  0.1005935581732370
  0.2640202266619854  0.2347754679529562  0.3257968116421422
  0.4306358233416607  0.0683232532664629  0.3257863703011128
  0.2640496953035987  0.7349083595409919  0.3254366279794182
  0.4307109210227189  0.5682271691632014  0.3256724025947098
  0.7640633188669518  0.2348890831010394  0.3255914557080107
  0.9307414938376619  0.0681977644989896  0.3258183768418718
  0.7641765196650334  0.7349350220813605  0.3257956589965031
  0.9306148959850575  0.5683004598888547  0.3257763120855643
 
  0.00000000E+00  0.00000000E+00  0.00000000E+00
  0.00000000E+00  0.00000000E+00  0.00000000E+00
  0.00000000E+00  0.00000000E+00  0.00000000E+00
  0.00000000E+00  0.00000000E+00  0.00000000E+00
  0.00000000E+00  0.00000000E+00  0.00000000E+00
  0.00000000E+00  0.00000000E+00  0.00000000E+00
  0.00000000E+00  0.00000000E+00  0.00000000E+00
  0.00000000E+00  0.00000000E+00  0.00000000E+00
  0.00000000E+00  0.00000000E+00  0.00000000E+00
  0.00000000E+00  0.00000000E+00  0.00000000E+00
  0.00000000E+00  0.00000000E+00  0.00000000E+00
  0.00000000E+00  0.00000000E+00  0.00000000E+00
  0.00000000E+00  0.00000000E+00  0.00000000E+00
  0.00000000E+00  0.00000000E+00  0.00000000E+00
  0.00000000E+00  0.00000000E+00  0.00000000E+00
  0.00000000E+00  0.00000000E+00  0.00000000E+00
