Graphene-B4C3 Top with lattice parameter
   1.00000000000000     
     4.1396014300896162    2.3899999999999997    0.0000000000000000
    -4.1396014300896162    2.3899999999999997    0.0000000000000000
     0.0000000000000000    0.0000000000000000   15.0000000000000000
   B    C 
     4    11
Direct
  0.0040525854505997  0.0026938088576037  0.1122905773701052
  0.3583123726999102  0.0028882190773732  0.0986517813721653
  0.0038479393034353  0.3567518125596996  0.0986524455252339
  0.6499890138945580  0.6484289749850967  0.0986487102002387
  0.3279420623077538  0.3263662166165476  0.1001973761316776
  0.6803747166429495  0.0029027886845133  0.1002021880472505
  0.0038334823655904  0.6787988215404769  0.1002001861823770
  0.0001363356354151  0.5000722773712125  0.3343406550643181
  0.1668063804801889  0.3334909150744949  0.3343843050406268
  0.0001175978396932  0.0000744799939478  0.3342662640958046
  0.1668436890929672  0.8333865798611896  0.3343888649422721
  0.5001230474712318  0.5000994263567128  0.3343435254046850
  0.6667841955904955  0.3334093187204131  0.3342216797502816
  0.5000950792150990  0.0000561565529351  0.3343396984862630
  0.6667021686768053  0.8333475370811088  0.3343844090533825
 
  0.00000000E+00  0.00000000E+00  0.00000000E+00
  0.00000000E+00  0.00000000E+00  0.00000000E+00
  0.00000000E+00  0.00000000E+00  0.00000000E+00
  0.00000000E+00  0.00000000E+00  0.00000000E+00
  0.00000000E+00  0.00000000E+00  0.00000000E+00
  0.00000000E+00  0.00000000E+00  0.00000000E+00
  0.00000000E+00  0.00000000E+00  0.00000000E+00
  0.00000000E+00  0.00000000E+00  0.00000000E+00
  0.00000000E+00  0.00000000E+00  0.00000000E+00
  0.00000000E+00  0.00000000E+00  0.00000000E+00
  0.00000000E+00  0.00000000E+00  0.00000000E+00
  0.00000000E+00  0.00000000E+00  0.00000000E+00
  0.00000000E+00  0.00000000E+00  0.00000000E+00
  0.00000000E+00  0.00000000E+00  0.00000000E+00
  0.00000000E+00  0.00000000E+00  0.00000000E+00
