Graphene-Borophene Bridge with lattice p
   1.00000000000000     
     4.3561086470611299    2.5150004999999998    0.0000000000000000
    -4.3561086470611299    2.5150004999999998    0.0000000000000000
     0.0000000000000000    0.0000000000000000   15.0000000000000000
   B    C 
     8     8
Direct
  0.6691603212686995 -0.0000001120820285  0.1000157693917058
  0.3308387562465600 -0.0000001169436771  0.1000158217927581
  0.0000001120820285  0.3308386787313030  0.1000157693917058
  0.0000001169436771  0.6691602437534425  0.1000158217927581
  0.3308385582438981  0.3308385428346897  0.1000158301753107
  0.6691604571653127  0.6691604417561043  0.1000158301753107
  0.6666660352942250  0.3333329647057775  0.0992435340422842
  0.3333327305871857  0.6666662694128168  0.1007926961331730
  0.2499968121119477  0.2499968720664484  0.4690504469694843
  0.4166643743140685  0.0833335819600945  0.4690501124233172
  0.2499990750830912  0.7499999249169113  0.4690498710835825
  0.4166667916284869  0.5833322083715157  0.4690502623333636
  0.7500010340726773  0.2499979659273252  0.4690503437382074
  0.9166669456513828  0.0833320543486197  0.4690506644976091
  0.7500021279335541  0.7500021878880548  0.4690504469694843
  0.9166654180399081  0.5833346256859340  0.4690501124233172
 
  0.00000000E+00  0.00000000E+00  0.00000000E+00
  0.00000000E+00  0.00000000E+00  0.00000000E+00
  0.00000000E+00  0.00000000E+00  0.00000000E+00
  0.00000000E+00  0.00000000E+00  0.00000000E+00
  0.00000000E+00  0.00000000E+00  0.00000000E+00
  0.00000000E+00  0.00000000E+00  0.00000000E+00
  0.00000000E+00  0.00000000E+00  0.00000000E+00
  0.00000000E+00  0.00000000E+00  0.00000000E+00
  0.00000000E+00  0.00000000E+00  0.00000000E+00
  0.00000000E+00  0.00000000E+00  0.00000000E+00
  0.00000000E+00  0.00000000E+00  0.00000000E+00
  0.00000000E+00  0.00000000E+00  0.00000000E+00
  0.00000000E+00  0.00000000E+00  0.00000000E+00
  0.00000000E+00  0.00000000E+00  0.00000000E+00
  0.00000000E+00  0.00000000E+00  0.00000000E+00
  0.00000000E+00  0.00000000E+00  0.00000000E+00
