Graphene-Borophene Bridge with lattice p
   1.00000000000000     
     4.3561077810357238    2.5149999999999988    0.0000000000000000
    -4.3561077810357238    2.5149999999999988    0.0000000000000000
     0.0000000000000000    0.0000000000000000   15.0000000000000000
   B    C 
     8     8
Direct
  0.6722265473562625 -0.0032306260860529  0.1662394471777606
  0.3343036415585412 -0.0032234991204679  0.1665409567593456
  0.0032306260860529  0.3277724526437394  0.1662394471777606
  0.0032234991204679  0.6656953584414610  0.1665409567593456
  0.3341609134242696  0.3277470218987704  0.1664761869231337
  0.6722519781012318  0.6658380865757326  0.1664761869231337
  0.6696495449477954  0.3303494550522070  0.1654313769040052
  0.3363581483787689  0.6636408516212342  0.1674903444118911
  0.2468390165215304  0.2531585166773416  0.4025990804249441
  0.4135213693931186  0.0865838495554120  0.4026868664265211
  0.2468353411657413  0.7531636588342611  0.4026810586242331
  0.4135097554752429  0.5864892445247593  0.4026765599700037
  0.7467933874945311  0.2532056125054716  0.4026537930455847
  0.9135002638758974  0.0864987361241055  0.4025151249542438
  0.7468404833226605  0.7531599834784726  0.4025990804249440
  0.9134151504445905  0.5864776306068845  0.4026868664265211
 
  0.00000000E+00  0.00000000E+00  0.00000000E+00
  0.00000000E+00  0.00000000E+00  0.00000000E+00
  0.00000000E+00  0.00000000E+00  0.00000000E+00
  0.00000000E+00  0.00000000E+00  0.00000000E+00
  0.00000000E+00  0.00000000E+00  0.00000000E+00
  0.00000000E+00  0.00000000E+00  0.00000000E+00
  0.00000000E+00  0.00000000E+00  0.00000000E+00
  0.00000000E+00  0.00000000E+00  0.00000000E+00
  0.00000000E+00  0.00000000E+00  0.00000000E+00
  0.00000000E+00  0.00000000E+00  0.00000000E+00
  0.00000000E+00  0.00000000E+00  0.00000000E+00
  0.00000000E+00  0.00000000E+00  0.00000000E+00
  0.00000000E+00  0.00000000E+00  0.00000000E+00
  0.00000000E+00  0.00000000E+00  0.00000000E+00
  0.00000000E+00  0.00000000E+00  0.00000000E+00
  0.00000000E+00  0.00000000E+00  0.00000000E+00
