Graphene-Borophene Hollow 2 with lattice
   1.00000000000000     
     4.3206007394805637    2.4944999999999999    0.0000000000000000
    -4.3206007394805637    2.4944999999999999    0.0000000000000000
     0.0000000000000000    0.0000000000000000   15.0000000000000000
   B    C 
     8     8
Direct
  0.6694888186788780 -0.0000393896664581  0.1668262109004910
  0.3304707916546660 -0.0000393896664581  0.1668262109004910
  0.0000393896664581  0.3305101813211238  0.1668262109004910
  0.0000393896664581  0.6695282083453368  0.1668262109004910
  0.3304707916546660  0.3305101813211238  0.1668262109004910
  0.6694888186788780  0.6695282083453368  0.1668262109004910
  0.6666659999999993  0.3333330000000032  0.1625929913285891
  0.3333330000000032  0.6666659999999993  0.1715825943354787
  0.3333534093231962  0.1666767046616052  0.4036987185192772
  0.5000211163754273  0.0000422327508543  0.4037656769853172
  0.3333326666666636  0.6666663333333389  0.4036928036065384
  0.5000211163754273  0.4999778836245757  0.4037656769853172
  0.8333222953383971  0.1666767046616052  0.4036987185192772
  0.9999996666666675  0.9999993333333350  0.4035811588126548
  0.8333222953383971  0.6666455906768061  0.4036987185192772
 -0.0000432327508518  0.4999778836245757  0.4037656769853172
 
  0.00000000E+00  0.00000000E+00  0.00000000E+00
  0.00000000E+00  0.00000000E+00  0.00000000E+00
  0.00000000E+00  0.00000000E+00  0.00000000E+00
  0.00000000E+00  0.00000000E+00  0.00000000E+00
  0.00000000E+00  0.00000000E+00  0.00000000E+00
  0.00000000E+00  0.00000000E+00  0.00000000E+00
  0.00000000E+00  0.00000000E+00  0.00000000E+00
  0.00000000E+00  0.00000000E+00  0.00000000E+00
  0.00000000E+00  0.00000000E+00  0.00000000E+00
  0.00000000E+00  0.00000000E+00  0.00000000E+00
  0.00000000E+00  0.00000000E+00  0.00000000E+00
  0.00000000E+00  0.00000000E+00  0.00000000E+00
  0.00000000E+00  0.00000000E+00  0.00000000E+00
  0.00000000E+00  0.00000000E+00  0.00000000E+00
  0.00000000E+00  0.00000000E+00  0.00000000E+00
  0.00000000E+00  0.00000000E+00  0.00000000E+00
