Graphene-B4C3 Bridge with lattice parame
   1.00000000000000     
     4.2262039704680605    2.4399999999999999    0.0000000000000000
    -4.2262039704680605    2.4399999999999999    0.0000000000000000
     0.0000000000000000    0.0000000000000000   15.0000000000000000
   B    C 
     4    11
Direct
  0.0132129833181903 -0.0057633072695902  0.1005217701816218
  0.3684142431510708 -0.0058766271804908  0.1004851864325022
  0.0132209729651470  0.3493243318158642  0.1007294908001800
  0.6584716951905736  0.6387300002987361  0.1006672935407118
  0.3368287866493386  0.3171548705210989  0.1004005099402827
  0.6901716721764880 -0.0057877938467267  0.1006908210631023
  0.0133406704285437  0.6708779263745445  0.1004860995721521
  0.0752789853381918  0.4242537052716899  0.3376392245945626
  0.2419199575421471  0.2575802896293955  0.3377503698264966
  0.0753364528726066  0.9243190948470954  0.3377007264661603
  0.2419632641695778  0.7575921269760262  0.3376475451525660
  0.5753062946140411  0.4242437976965980  0.3376687589785608
  0.7419606243422900  0.2575955873952132  0.3375930878629602
  0.5752766025524525  0.9242899823334804  0.3377339216983619
  0.7419241280226619  0.7575666818037616  0.3376645272231141
 
  0.00000000E+00  0.00000000E+00  0.00000000E+00
  0.00000000E+00  0.00000000E+00  0.00000000E+00
  0.00000000E+00  0.00000000E+00  0.00000000E+00
  0.00000000E+00  0.00000000E+00  0.00000000E+00
  0.00000000E+00  0.00000000E+00  0.00000000E+00
  0.00000000E+00  0.00000000E+00  0.00000000E+00
  0.00000000E+00  0.00000000E+00  0.00000000E+00
  0.00000000E+00  0.00000000E+00  0.00000000E+00
  0.00000000E+00  0.00000000E+00  0.00000000E+00
  0.00000000E+00  0.00000000E+00  0.00000000E+00
  0.00000000E+00  0.00000000E+00  0.00000000E+00
  0.00000000E+00  0.00000000E+00  0.00000000E+00
  0.00000000E+00  0.00000000E+00  0.00000000E+00
  0.00000000E+00  0.00000000E+00  0.00000000E+00
  0.00000000E+00  0.00000000E+00  0.00000000E+00
