Graphene-B4C3 Top with lattice parameter
   1.00000000000000     
     4.2140796148150779    2.4329999999999998    0.0000000000000000
    -4.2140796148150779    2.4329999999999998    0.0000000000000000
     0.0000000000000000    0.0000000000000000   15.0000000000000000
   B    C 
     4    11
Direct
  0.0040410810343274  0.0026854491313028  0.1007871364457003
  0.3592213487749024  0.0029920256828383  0.1003673183413851
  0.0037325862937556  0.3575584204670091  0.1003680735006410
  0.6491635206745060  0.6475065544116934  0.1003644998849146
  0.3275867497990284  0.3259281017301364  0.1003430842392077
  0.6807947533109205  0.0029896825737393  0.1003431865634112
  0.0037315677592101  0.6791327452638684  0.1003404052372008
  0.0001453890953347  0.5000708312912691  0.3350777823416551
  0.1667958140497605  0.3334588585160242  0.3351115899895366
  0.0001275176135546  0.0000793333442797  0.3350434526259959
  0.1668388562035144  0.8334126351810690  0.3351152613973550
  0.5001386656665999  0.5001091622180170  0.3350803821687052
  0.6667948043614672  0.3334144105287410  0.3349825902846512
  0.5000986460750354  0.0000613763352067  0.3350761914004952
  0.6667493659547750  0.8333677466581297  0.3351117122458281
 
  0.00000000E+00  0.00000000E+00  0.00000000E+00
  0.00000000E+00  0.00000000E+00  0.00000000E+00
  0.00000000E+00  0.00000000E+00  0.00000000E+00
  0.00000000E+00  0.00000000E+00  0.00000000E+00
  0.00000000E+00  0.00000000E+00  0.00000000E+00
  0.00000000E+00  0.00000000E+00  0.00000000E+00
  0.00000000E+00  0.00000000E+00  0.00000000E+00
  0.00000000E+00  0.00000000E+00  0.00000000E+00
  0.00000000E+00  0.00000000E+00  0.00000000E+00
  0.00000000E+00  0.00000000E+00  0.00000000E+00
  0.00000000E+00  0.00000000E+00  0.00000000E+00
  0.00000000E+00  0.00000000E+00  0.00000000E+00
  0.00000000E+00  0.00000000E+00  0.00000000E+00
  0.00000000E+00  0.00000000E+00  0.00000000E+00
  0.00000000E+00  0.00000000E+00  0.00000000E+00
