Graphene-B4C3 Bridge with lattice parame
   1.00000000000000     
     4.1136206679760834    2.3750000000000000    0.0000000000000000
    -4.1136206679760834    2.3750000000000000    0.0000000000000000
     0.0000000000000000    0.0000000000000000   15.0000000000000000
   B    C 
     4    11
Direct
  0.0375942181352519 -0.0286663510962711  0.1171221805226236
  0.3913002375109544 -0.0284921290253497  0.0989053421126545
  0.0374233301369898  0.3248914012050084  0.0989496644680662
  0.6841419756293664  0.6176122609933113  0.0989288699021227
  0.3614829327821747  0.2949001665260826  0.1010167749832034
  0.7141025163390680 -0.0283808731063970  0.1008645069645996
  0.0374161278837699  0.6475426277133202  0.1010488291954998
  0.0540774447788411  0.4441750909260081  0.3360642162188538
  0.2207868247718114  0.2776564010719896  0.3361612752006967
  0.0541059570159854  0.9441568527209001  0.3359600277155809
  0.2208281280110946  0.7774703724745916  0.3361056364750947
  0.5540758675109181  0.4441493366986929  0.3360818644613320
  0.7207091586830119  0.2775037225404473  0.3359801774659523
  0.5540221501480316  0.9441508194940288  0.3360938502580550
  0.7205604639960528  0.7774309675303340  0.3360961173890015
 
  0.00000000E+00  0.00000000E+00  0.00000000E+00
  0.00000000E+00  0.00000000E+00  0.00000000E+00
  0.00000000E+00  0.00000000E+00  0.00000000E+00
  0.00000000E+00  0.00000000E+00  0.00000000E+00
  0.00000000E+00  0.00000000E+00  0.00000000E+00
  0.00000000E+00  0.00000000E+00  0.00000000E+00
  0.00000000E+00  0.00000000E+00  0.00000000E+00
  0.00000000E+00  0.00000000E+00  0.00000000E+00
  0.00000000E+00  0.00000000E+00  0.00000000E+00
  0.00000000E+00  0.00000000E+00  0.00000000E+00
  0.00000000E+00  0.00000000E+00  0.00000000E+00
  0.00000000E+00  0.00000000E+00  0.00000000E+00
  0.00000000E+00  0.00000000E+00  0.00000000E+00
  0.00000000E+00  0.00000000E+00  0.00000000E+00
  0.00000000E+00  0.00000000E+00  0.00000000E+00
