Graphene-B4C3 Bridge with lattice parame
   1.00000000000000     
     4.1915629543166810    2.4199999999999990    0.0000000000000000
    -4.1915629543166810    2.4199999999999990    0.0000000000000000
     0.0000000000000000    0.0000000000000000   15.0000000000000000
   B    C 
     4    11
Direct
  0.0383066989672163 -0.0302530743730513  0.1023934450442867
  0.3933352618456369 -0.0300308346817797  0.1013412293879135
  0.0382290720208796  0.3248297091834250  0.1010615468699194
  0.6837605418205245  0.6152785581050080  0.1011566060970750
  0.3624178196365958  0.2944878176156960  0.1013012965903459
  0.7140675094621260 -0.0302588885706214  0.1012529156346526
  0.0390485160883639  0.6466822366166796  0.1012817856468212
  0.0533993160559201  0.4451772996235722  0.3369589969750507
  0.2200963172175732  0.2788731830273182  0.3369670063019268
  0.0533537590302551  0.9450791876164526  0.3369597140096994
  0.2199861937077023  0.7785970627127695  0.3369479994632509
  0.5533178042937612  0.4451576333038648  0.3369827289710701
  0.7199450322943410  0.2785486172682543  0.3368432273142452
  0.5534685215093907  0.9453120188372409  0.3369934786452881
  0.7198949693830341  0.7786201403818696  0.3369373563817901
 
  0.00000000E+00  0.00000000E+00  0.00000000E+00
  0.00000000E+00  0.00000000E+00  0.00000000E+00
  0.00000000E+00  0.00000000E+00  0.00000000E+00
  0.00000000E+00  0.00000000E+00  0.00000000E+00
  0.00000000E+00  0.00000000E+00  0.00000000E+00
  0.00000000E+00  0.00000000E+00  0.00000000E+00
  0.00000000E+00  0.00000000E+00  0.00000000E+00
  0.00000000E+00  0.00000000E+00  0.00000000E+00
  0.00000000E+00  0.00000000E+00  0.00000000E+00
  0.00000000E+00  0.00000000E+00  0.00000000E+00
  0.00000000E+00  0.00000000E+00  0.00000000E+00
  0.00000000E+00  0.00000000E+00  0.00000000E+00
  0.00000000E+00  0.00000000E+00  0.00000000E+00
  0.00000000E+00  0.00000000E+00  0.00000000E+00
  0.00000000E+00  0.00000000E+00  0.00000000E+00
