Graphene-Borophene Hollow 2 with lattice
   1.00000000000000     
     4.3647680350735705    2.5200000000000000    0.0000000000000000
    -4.3647680350735705    2.5200000000000000    0.0000000000000000
     0.0000000000000000    0.0000000000000000   15.0000000000000000
   B    C 
     8     8
Direct
  0.6689524048822570 -0.0000321098154430  0.1661077318526241
  0.3310144853023025 -0.0000321098154431  0.1661077318526241
  0.0000321098154431  0.3310465951177451  0.1661077318526241
  0.0000321098154431  0.6689845146977005  0.1661077318526241
  0.3310144853023025  0.3310465951177451  0.1661077318526241
  0.6689524048822570  0.6689845146977005  0.1661077318526241
  0.6666659999999993  0.3333330000000032  0.1650202632362860
  0.3333330000000032  0.6666659999999993  0.1678700417645194
  0.3333550408328062  0.1666775204164102  0.4044088802865207
  0.5000179077975669  0.0000358155951344  0.4044388590043479
  0.3333326666666636  0.6666663333333389  0.4043814004091899
  0.5000179077975669  0.4999810922024350  0.4044388590043479
  0.8333214795835920  0.1666775204164102  0.4044088802865207
  0.9999996666666675  0.9999993333333350  0.4043386856016446
  0.8333214795835920  0.6666439591671961  0.4044088802865207
 -0.0000368155951320  0.4999810922024350  0.4044388590043479
 
  0.00000000E+00  0.00000000E+00  0.00000000E+00
  0.00000000E+00  0.00000000E+00  0.00000000E+00
  0.00000000E+00  0.00000000E+00  0.00000000E+00
  0.00000000E+00  0.00000000E+00  0.00000000E+00
  0.00000000E+00  0.00000000E+00  0.00000000E+00
  0.00000000E+00  0.00000000E+00  0.00000000E+00
  0.00000000E+00  0.00000000E+00  0.00000000E+00
  0.00000000E+00  0.00000000E+00  0.00000000E+00
  0.00000000E+00  0.00000000E+00  0.00000000E+00
  0.00000000E+00  0.00000000E+00  0.00000000E+00
  0.00000000E+00  0.00000000E+00  0.00000000E+00
  0.00000000E+00  0.00000000E+00  0.00000000E+00
  0.00000000E+00  0.00000000E+00  0.00000000E+00
  0.00000000E+00  0.00000000E+00  0.00000000E+00
  0.00000000E+00  0.00000000E+00  0.00000000E+00
  0.00000000E+00  0.00000000E+00  0.00000000E+00
