Graphene-B4C3 Top with lattice parameter
   1.00000000000000     
     4.1933586918071999    2.4197743158245624    0.0098092323939477
    -4.1935684081399485    2.4201383752388557    0.0019199854690093
     0.0126987646084370    0.0334372511269687    7.7748259095417369
   B    C 
     4    11
Direct
  0.0026305550253964  0.0020647900315966 -0.0066471072425378
  0.3576724701827970  0.0014705687218916 -0.0172662894597693
  0.0025841888923121  0.3571694066153261 -0.0172357992165520
  0.6474428644037908  0.6465880344677245 -0.0174022468061259
  0.3261185834503060  0.3249465857486260 -0.0153137505830143
  0.6794371797046319  0.0019454657827585 -0.0170430141123801
  0.0021504806139895  0.6784453223850498 -0.0174928246269223
  0.0014455377100837  0.5008440513739143  0.4426736820472355
  0.1681262117217816  0.3343089265166778  0.4426671626145913
  0.0013947593891559  0.0008515594637216  0.4431092319970079
  0.1681999161667036  0.8341690945544779  0.4424844118937791
  0.5013911480679109  0.5009362523987020  0.4427148894759674
  0.6680926254158266  0.3341696920888924  0.4432051076840651
  0.5013183764158855  0.0008015655347102  0.4425974335241494
  0.6679557695061223  0.8340560176492550  0.4425951128105376
 
  0.00000000E+00  0.00000000E+00  0.00000000E+00
  0.00000000E+00  0.00000000E+00  0.00000000E+00
  0.00000000E+00  0.00000000E+00  0.00000000E+00
  0.00000000E+00  0.00000000E+00  0.00000000E+00
  0.00000000E+00  0.00000000E+00  0.00000000E+00
  0.00000000E+00  0.00000000E+00  0.00000000E+00
  0.00000000E+00  0.00000000E+00  0.00000000E+00
  0.00000000E+00  0.00000000E+00  0.00000000E+00
  0.00000000E+00  0.00000000E+00  0.00000000E+00
  0.00000000E+00  0.00000000E+00  0.00000000E+00
  0.00000000E+00  0.00000000E+00  0.00000000E+00
  0.00000000E+00  0.00000000E+00  0.00000000E+00
  0.00000000E+00  0.00000000E+00  0.00000000E+00
  0.00000000E+00  0.00000000E+00  0.00000000E+00
  0.00000000E+00  0.00000000E+00  0.00000000E+00
