Graphene-B4C3 Top with lattice parameter
   1.00000000000000     
     4.1915629543166828    2.4199999999999999    0.0000000000000000
    -4.1915629543166828    2.4199999999999999    0.0000000000000000
     0.0000000000000000    0.0000000000000000   15.0000000000000000
   B    C 
     4    11
Direct
  0.0041803633668723  0.0027663249688756  0.1189631786599798
  0.3568943821352520  0.0030504624379764  0.0979380846261210
  0.0039124802301824  0.3552048037068588  0.0979394907426632
  0.6517370271043323  0.6500737736168815  0.0979309492152112
  0.3266779826470110  0.3249353893351636  0.1002624483820260
  0.6820223147609111  0.0031221554767084  0.1002442641498930
  0.0038583745822562  0.6802754835672250  0.1002375439117829
 -0.0000819375292945  0.5000091838909504  0.3337567101918603
  0.1666227224026304  0.3331550955987067  0.3338088482966237
  0.9999999849858044  0.0000027913855660  0.3336279221523650
  0.1665415183306972  0.8333830688249161  0.3338123487541408
  0.4999863471000408  0.4999068807654695  0.3337601893065196
  0.6666694017255130  0.3333322232898737  0.3336662415804472
  0.5000888635376725  0.0000822452109479  0.3337560738287404
  0.6668508412868117  0.8334674512572058  0.3338083728683084
 
  0.00000000E+00  0.00000000E+00  0.00000000E+00
  0.00000000E+00  0.00000000E+00  0.00000000E+00
  0.00000000E+00  0.00000000E+00  0.00000000E+00
  0.00000000E+00  0.00000000E+00  0.00000000E+00
  0.00000000E+00  0.00000000E+00  0.00000000E+00
  0.00000000E+00  0.00000000E+00  0.00000000E+00
  0.00000000E+00  0.00000000E+00  0.00000000E+00
  0.00000000E+00  0.00000000E+00  0.00000000E+00
  0.00000000E+00  0.00000000E+00  0.00000000E+00
  0.00000000E+00  0.00000000E+00  0.00000000E+00
  0.00000000E+00  0.00000000E+00  0.00000000E+00
  0.00000000E+00  0.00000000E+00  0.00000000E+00
  0.00000000E+00  0.00000000E+00  0.00000000E+00
  0.00000000E+00  0.00000000E+00  0.00000000E+00
  0.00000000E+00  0.00000000E+00  0.00000000E+00
