Graphene-B4C3 Top with lattice parameter
   1.00000000000000     
     4.1915629543166828    2.4199999999999999    0.0000000000000000
    -4.1915629543166828    2.4199999999999999    0.0000000000000000
     0.0000000000000000    0.0000000000000000   15.0000000000000000
   B    C 
     4    11
Direct
  0.0042017911674008  0.0028719841569791  0.1071816776189648
  0.3588929627225318  0.0029992278586299  0.1004328868131702
  0.0038352044542816  0.3572658697453465  0.1004272550558356
  0.6497717337049096  0.6479779663275330  0.1004430170624940
  0.3278861185543027  0.3264193040408482  0.1011902195515293
  0.6804777593673599  0.0027202017732815  0.1012351496889506
  0.0040666683784533  0.6790783697053948  0.1012410969680679
  0.0000850870942955  0.4999828938638901  0.3339722362438060
  0.1666261626340644  0.3333725080491701  0.3339576693257366
  0.0000286641674420  0.0000132074628657  0.3338713735439296
  0.1667603217342332  0.8333983507478010  0.3339638489946422
  0.5000608159843369  0.5001054148164835  0.3339766403183442
  0.6666802091867282  0.3333456312851611  0.3336953535446327
  0.4999362375556796 -0.0000455821799658  0.3339683706176713
  0.6666509299606731  0.8332619856799061  0.3339558713189075
 
  0.00000000E+00  0.00000000E+00  0.00000000E+00
  0.00000000E+00  0.00000000E+00  0.00000000E+00
  0.00000000E+00  0.00000000E+00  0.00000000E+00
  0.00000000E+00  0.00000000E+00  0.00000000E+00
  0.00000000E+00  0.00000000E+00  0.00000000E+00
  0.00000000E+00  0.00000000E+00  0.00000000E+00
  0.00000000E+00  0.00000000E+00  0.00000000E+00
  0.00000000E+00  0.00000000E+00  0.00000000E+00
  0.00000000E+00  0.00000000E+00  0.00000000E+00
  0.00000000E+00  0.00000000E+00  0.00000000E+00
  0.00000000E+00  0.00000000E+00  0.00000000E+00
  0.00000000E+00  0.00000000E+00  0.00000000E+00
  0.00000000E+00  0.00000000E+00  0.00000000E+00
  0.00000000E+00  0.00000000E+00  0.00000000E+00
  0.00000000E+00  0.00000000E+00  0.00000000E+00
