Graphene-B4C3 Bridge with lattice parame
   1.00000000000000     
     4.1482616841274602    2.3949999999999996    0.0000000000000000
    -4.1482616841274602    2.3949999999999996    0.0000000000000000
     0.0000000000000000    0.0000000000000000   15.0000000000000000
   B    C 
     4    11
Direct
  0.0254828667187879 -0.0175289585060523  0.1116024122213801
  0.3799395480236399 -0.0174407072546246  0.0996631525981760
  0.0253642970875376  0.3367526410911864  0.0995520978268198
  0.6712948428323557  0.6280047405489178  0.0995916890011142
  0.3494401247626340  0.3061173218711887  0.1008831437323806
  0.7019598623037975 -0.0172587629559853  0.1009458419329963
  0.0254357199157241  0.6586112284934759  0.1009073589149265
  0.0646668401065605  0.4344198366139184  0.3365104649590280
  0.2313799227726702  0.2679000546434564  0.3366103030930213
  0.0647243739625094  0.9345438702925006  0.3364930154431693
  0.2313727121570029  0.7677122849033761  0.3365319161730158
  0.5645471673436752  0.4343624987159952  0.3365182237536800
  0.7312890531841447  0.2677916698721985  0.3364389881286897
  0.5645736493311894  0.9344634801646813  0.3365991652386323
  0.7311563528310916  0.7676494681724633  0.3365315603163066
 
  0.00000000E+00  0.00000000E+00  0.00000000E+00
  0.00000000E+00  0.00000000E+00  0.00000000E+00
  0.00000000E+00  0.00000000E+00  0.00000000E+00
  0.00000000E+00  0.00000000E+00  0.00000000E+00
  0.00000000E+00  0.00000000E+00  0.00000000E+00
  0.00000000E+00  0.00000000E+00  0.00000000E+00
  0.00000000E+00  0.00000000E+00  0.00000000E+00
  0.00000000E+00  0.00000000E+00  0.00000000E+00
  0.00000000E+00  0.00000000E+00  0.00000000E+00
  0.00000000E+00  0.00000000E+00  0.00000000E+00
  0.00000000E+00  0.00000000E+00  0.00000000E+00
  0.00000000E+00  0.00000000E+00  0.00000000E+00
  0.00000000E+00  0.00000000E+00  0.00000000E+00
  0.00000000E+00  0.00000000E+00  0.00000000E+00
  0.00000000E+00  0.00000000E+00  0.00000000E+00
