Graphene-B4C3 Top with lattice parameter
   1.00000000000000     
     4.1880988527015450    2.4180000000000001    0.0000000000000000
    -4.1880988527015450    2.4180000000000001    0.0000000000000000
     0.0000000000000000    0.0000000000000000   15.0000000000000000
   B    C 
     4    11
Direct
  0.0040428410394543  0.0026846522728830  0.1019165839380011
  0.3592168349989273  0.0029537347572608  0.1004802318958545
  0.0037658231063215  0.3575970904076272  0.1004811618318884
  0.6491245769641909  0.6475027688009478  0.1004768030260098
  0.3278558895772684  0.3262341234315310  0.1005771149808132
  0.6804877722817758  0.0029521585658746  0.1005732617341410
  0.0037727706547495  0.6788738896050384  0.1005698363165296
  0.0001503831309615  0.5000733912889811  0.3348103250502746
  0.1667983404663445  0.3334589634302024  0.3348432947802427
  0.0001263730522462  0.0000781087411111  0.3347683041302096
  0.1668420341230052  0.8334125590543584  0.3348471857347047
  0.5001339036476824  0.5001113802590474  0.3348132302979906
  0.6667973803790597  0.3334137192995258  0.3347030948425419
  0.5000943406105801  0.0000539066940894  0.3348087958697888
  0.6667514026341284  0.8333668867248468  0.3348434422376914
 
  0.00000000E+00  0.00000000E+00  0.00000000E+00
  0.00000000E+00  0.00000000E+00  0.00000000E+00
  0.00000000E+00  0.00000000E+00  0.00000000E+00
  0.00000000E+00  0.00000000E+00  0.00000000E+00
  0.00000000E+00  0.00000000E+00  0.00000000E+00
  0.00000000E+00  0.00000000E+00  0.00000000E+00
  0.00000000E+00  0.00000000E+00  0.00000000E+00
  0.00000000E+00  0.00000000E+00  0.00000000E+00
  0.00000000E+00  0.00000000E+00  0.00000000E+00
  0.00000000E+00  0.00000000E+00  0.00000000E+00
  0.00000000E+00  0.00000000E+00  0.00000000E+00
  0.00000000E+00  0.00000000E+00  0.00000000E+00
  0.00000000E+00  0.00000000E+00  0.00000000E+00
  0.00000000E+00  0.00000000E+00  0.00000000E+00
  0.00000000E+00  0.00000000E+00  0.00000000E+00
