Borophene with lattice parameter 5.051  
   1.00000000000000     
     4.3742939999999999    2.5255000000000001    0.0000000000000000
    -4.3742939999999999    2.5255000000000001    0.0000000000000000
     0.0000000000000000    0.0000000000000000   15.0000000000000000
   B 
     8
Direct
  0.6689317331424711  0.0000000000000000  0.1000000000000014
  0.3310672668575316 -0.0000000000000000  0.1000000000000014
 -0.0000000000000000  0.3310672668575316  0.1000000000000014
  0.0000000000000000  0.6689317331424711  0.1000000000000014
  0.3310672668575316  0.3310672668575316  0.1000000000000014
  0.6689317331424711  0.6689317331424711  0.1000000000000014
  0.6666659999999993  0.3333330000000032  0.0999561104887752
  0.3333330000000032  0.6666659999999993  0.1000438895112276
 
  0.00000000E+00  0.00000000E+00  0.00000000E+00
  0.00000000E+00  0.00000000E+00  0.00000000E+00
  0.00000000E+00  0.00000000E+00  0.00000000E+00
  0.00000000E+00  0.00000000E+00  0.00000000E+00
  0.00000000E+00  0.00000000E+00  0.00000000E+00
  0.00000000E+00  0.00000000E+00  0.00000000E+00
  0.00000000E+00  0.00000000E+00  0.00000000E+00
  0.00000000E+00  0.00000000E+00  0.00000000E+00
