BC3 with lattice parameter 5.169        
   1.00000000000000     
     4.4764850000000003    2.5844999999999998    0.0000000000000000
    -4.4764850000000003    2.5844999999999998    0.0000000000000000
     0.0000000000000000    0.0000000000000000   15.0000000000000000
   B    C 
     2     6
Direct
  0.3383321762058963  0.6691650876605796  0.2500000000000000
  0.6716632356778935  0.3358349262910295  0.2500000000000000
  0.1635046755823999  0.3195304417206700  0.2500000000000000
  0.3220299355026454  0.1610266749343854  0.2500000000000000
  0.1635303016093077  0.8439955850846609  0.2500000000000000
  0.8464696898736830  0.1610044220832979  0.2500000000000000
  0.6879700139804913  0.8439715553634938  0.2500000000000000
  0.8464959715676921  0.6854673068618822  0.2500000000000000
 
  0.00000000E+00  0.00000000E+00  0.00000000E+00
  0.00000000E+00  0.00000000E+00  0.00000000E+00
  0.00000000E+00  0.00000000E+00  0.00000000E+00
  0.00000000E+00  0.00000000E+00  0.00000000E+00
  0.00000000E+00  0.00000000E+00  0.00000000E+00
  0.00000000E+00  0.00000000E+00  0.00000000E+00
  0.00000000E+00  0.00000000E+00  0.00000000E+00
  0.00000000E+00  0.00000000E+00  0.00000000E+00
