k-points 18
0
Gamma
18    18    1
0    0    0