Graphene-BC3 Hollow with lattice paramet
   1.00000000000000     
     4.3604379080546485    2.5175000000000001    0.0000000000000000
    -4.3604379080546485    2.5175000000000001    0.0000000000000000
     0.0000000000000000    0.0000000000000000   15.0000000000000000
   B    C 
     2    14
Direct
  0.3382668150766845  0.6691318362087888  0.1004571768297948
  0.6716022963052755  0.3357995624758560  0.1001433229459367
  0.1646120135337339  0.3218250466624180  0.1001551891888440
  0.3242178274330907  0.1621077325987606  0.1001648380202872
  0.1646120593542810  0.8427850889159517  0.1001555925919415
  0.8452874675506054  0.1621053036275245  0.1001518407509746
  0.6855675926224070  0.8427824220897584  0.1001428145615294
  0.8452881951236619  0.6831802708765954  0.1001522293315144
  0.3334196595503939  0.1667102751519517  0.3253944723390486
  0.5001049765786652  0.0001171280550003  0.3253700443618184
  0.3334001216566477  0.6667005132178270  0.3250889269229407
  0.5001049819681471  0.4999898640760971  0.3253700515069513
  0.8333949259599900  0.1667116743019158  0.3253897326243717
  0.0000675912750191  0.0000348069030680  0.3253700426020678
  0.8333949341799641  0.6666841835817381  0.3253897473490354
  0.9999838751647671  0.4999929579234431  0.3253706447396150
 
  0.00000000E+00  0.00000000E+00  0.00000000E+00
  0.00000000E+00  0.00000000E+00  0.00000000E+00
  0.00000000E+00  0.00000000E+00  0.00000000E+00
  0.00000000E+00  0.00000000E+00  0.00000000E+00
  0.00000000E+00  0.00000000E+00  0.00000000E+00
  0.00000000E+00  0.00000000E+00  0.00000000E+00
  0.00000000E+00  0.00000000E+00  0.00000000E+00
  0.00000000E+00  0.00000000E+00  0.00000000E+00
  0.00000000E+00  0.00000000E+00  0.00000000E+00
  0.00000000E+00  0.00000000E+00  0.00000000E+00
  0.00000000E+00  0.00000000E+00  0.00000000E+00
  0.00000000E+00  0.00000000E+00  0.00000000E+00
  0.00000000E+00  0.00000000E+00  0.00000000E+00
  0.00000000E+00  0.00000000E+00  0.00000000E+00
  0.00000000E+00  0.00000000E+00  0.00000000E+00
  0.00000000E+00  0.00000000E+00  0.00000000E+00
