Graphene-B4C3 Hollow 2 with lattice para
   1.00000000000000     
     4.1958930813356048    2.4224999999999999    0.0000000000000000
    -4.1958930813356048    2.4224999999999999    0.0000000000000000
     0.0000000000000000    0.0000000000000000   15.0000000000000000
   B    C 
     4    11
Direct
  0.0042967661522282  0.0028525424765600  0.1019564875541013
  0.3594535502119299  0.0028584045110588  0.1008812840577803
  0.0043054456252622  0.3580096152998801  0.1008833841559694
  0.6491478545836733  0.6477007536936427  0.1008873964960610
  0.3279853268150030  0.3265381109026798  0.1009489209535747
  0.6806233778538341  0.0028590300800321  0.1009490760420839
  0.0043058321473043  0.6791769595362324  0.1009493080956041
  0.1665463549184931  0.3332643260871905  0.3380017591158322
  0.3332252904940307  0.1665728173577769  0.3380034980774824
  0.1665883885463781  0.8332857812560122  0.3380057162865066
  0.3332261865300908  0.6665956951952932  0.3378861032660267
  0.6665687192215694  0.3332646266676049  0.3378861028787865
  0.8332461145183939  0.1666144046105391  0.3380050389223845
  0.6665685365735853  0.8332457397617087  0.3380014921065093
  0.8332062558082323  0.6665951925637995  0.3380004319913244
 
  0.00000000E+00  0.00000000E+00  0.00000000E+00
  0.00000000E+00  0.00000000E+00  0.00000000E+00
  0.00000000E+00  0.00000000E+00  0.00000000E+00
  0.00000000E+00  0.00000000E+00  0.00000000E+00
  0.00000000E+00  0.00000000E+00  0.00000000E+00
  0.00000000E+00  0.00000000E+00  0.00000000E+00
  0.00000000E+00  0.00000000E+00  0.00000000E+00
  0.00000000E+00  0.00000000E+00  0.00000000E+00
  0.00000000E+00  0.00000000E+00  0.00000000E+00
  0.00000000E+00  0.00000000E+00  0.00000000E+00
  0.00000000E+00  0.00000000E+00  0.00000000E+00
  0.00000000E+00  0.00000000E+00  0.00000000E+00
  0.00000000E+00  0.00000000E+00  0.00000000E+00
  0.00000000E+00  0.00000000E+00  0.00000000E+00
  0.00000000E+00  0.00000000E+00  0.00000000E+00
