Graphene-B4C3 Hollow 2 with lattice para
   1.00000000000000     
     4.1958930813356048    2.4224999999999999    0.0000000000000000
    -4.1958930813356048    2.4224999999999999    0.0000000000000000
     0.0000000000000000    0.0000000000000000   15.0000000000000000
   B    C 
     4    11
Direct
  0.0043239057827089  0.0028736929022924  0.0997454218942515
  0.3594867464240062  0.0028750433306978  0.1012552794483754
  0.0043361588306139  0.3580462768240344  0.1012567011646330
  0.6491375710214460  0.6476771777876333  0.1012520114861108
  0.3280029765880800  0.3265631650383081  0.1010183945729684
  0.6806383597269671  0.0028480585085762  0.1010242774738443
  0.0042982449301992  0.6791851443730278  0.1010253307249250
  0.1665298459200601  0.3332557823539910  0.3381084239774271
  0.3332193252545325  0.1665695114347851  0.3381100320970958
  0.1665659500667283  0.8332663418118738  0.3381136692153135
  0.3332223698746209  0.6665923562568391  0.3380016188864081
  0.6665570459150431  0.3332566399161715  0.3380017191886727
  0.8332289364611402  0.1666011956745068  0.3381132727211072
  0.6665521535107074  0.8332353421223687  0.3381105034648376
  0.8331944096931524  0.6665882716649053  0.3381093436840568
 
  0.00000000E+00  0.00000000E+00  0.00000000E+00
  0.00000000E+00  0.00000000E+00  0.00000000E+00
  0.00000000E+00  0.00000000E+00  0.00000000E+00
  0.00000000E+00  0.00000000E+00  0.00000000E+00
  0.00000000E+00  0.00000000E+00  0.00000000E+00
  0.00000000E+00  0.00000000E+00  0.00000000E+00
  0.00000000E+00  0.00000000E+00  0.00000000E+00
  0.00000000E+00  0.00000000E+00  0.00000000E+00
  0.00000000E+00  0.00000000E+00  0.00000000E+00
  0.00000000E+00  0.00000000E+00  0.00000000E+00
  0.00000000E+00  0.00000000E+00  0.00000000E+00
  0.00000000E+00  0.00000000E+00  0.00000000E+00
  0.00000000E+00  0.00000000E+00  0.00000000E+00
  0.00000000E+00  0.00000000E+00  0.00000000E+00
  0.00000000E+00  0.00000000E+00  0.00000000E+00
