Graphene-BC3 Hollow with lattice paramet
   1.00000000000000     
     4.3682321366887082    2.5219999999999998    0.0000000000000000
    -4.3682321366887082    2.5219999999999998    0.0000000000000000
     0.0000000000000000    0.0000000000000000   15.0000000000000000
   B    C 
     2    14
Direct
  0.3382309221669776  0.6691103824154843  0.1135659600866702
  0.6715669713576162  0.3357777988781283  0.1132291997393523
  0.1645106884639858  0.3216683647420141  0.1132133281442645
  0.3240455280347159  0.1620179338093121  0.1132222475208211
  0.1645091220389344  0.8428291417067534  0.1132150107052338
  0.8453221632913385  0.1620161741005276  0.1132140349448029
  0.6856668790847988  0.8428279944655008  0.1132076390914573
  0.8453210546220324  0.6832957969206428  0.1132157603004994
  0.3334551409181872  0.1667322171906049  0.3379948204585515
  0.5001453158811234  0.0001466535456184  0.3379676195797107
  0.3334331146740771  0.6667212104106184  0.3376673470863681
  0.5001453535805399  0.5000089035627512  0.3379676175067291
  0.8334271480364881  0.1667334692860480  0.3379898749821404
  0.0001045204939802  0.0000574085938806  0.3379714165464999
  0.8334271376931883  0.6667029437684125  0.3379899093387247
  0.0000142729953494  0.5000122732703972  0.3379682139681743
 
  0.00000000E+00  0.00000000E+00  0.00000000E+00
  0.00000000E+00  0.00000000E+00  0.00000000E+00
  0.00000000E+00  0.00000000E+00  0.00000000E+00
  0.00000000E+00  0.00000000E+00  0.00000000E+00
  0.00000000E+00  0.00000000E+00  0.00000000E+00
  0.00000000E+00  0.00000000E+00  0.00000000E+00
  0.00000000E+00  0.00000000E+00  0.00000000E+00
  0.00000000E+00  0.00000000E+00  0.00000000E+00
  0.00000000E+00  0.00000000E+00  0.00000000E+00
  0.00000000E+00  0.00000000E+00  0.00000000E+00
  0.00000000E+00  0.00000000E+00  0.00000000E+00
  0.00000000E+00  0.00000000E+00  0.00000000E+00
  0.00000000E+00  0.00000000E+00  0.00000000E+00
  0.00000000E+00  0.00000000E+00  0.00000000E+00
  0.00000000E+00  0.00000000E+00  0.00000000E+00
  0.00000000E+00  0.00000000E+00  0.00000000E+00
