Graphene-BC3 Top with lattice parameter 
   1.00000000000000     
     4.3647680350735687    2.5199999999999991    0.0000000000000000
    -4.3647680350735687    2.5199999999999991    0.0000000000000000
     0.0000000000000000    0.0000000000000000   15.0000000000000000
   B    C 
     2    14
Direct
  0.3383346705589795  0.6691678174504569  0.1002368205551457
  0.6716674270978759  0.3358339213239830  0.1002368101129684
  0.1646502837975538  0.3217943172388038  0.0999115024964359
  0.3242973531069245  0.1621484062987438  0.0999105660059909
  0.1646515508720689  0.8428566149021753  0.0999115014138191
  0.8453590779235582  0.1621475686302578  0.0999129476354382
  0.6857130552215162  0.8428556734839162  0.0999135034691494
  0.8453607864739127  0.6832104261370171  0.0999129413620186
  0.1665658758975182  0.3331385404864424  0.3288819180811500
  0.3331361184389928  0.1665678028420927  0.3288830332990936
  0.1665658855284519  0.8334270311014477  0.3288819174875371
  0.3333269110838619  0.6666632043067632  0.3285846375761530
  0.6666602313887325  0.3333299662449442  0.3285846367429496
  0.8334246919995351  0.1665683647324120  0.3288795167790347
  0.6668533982245396  0.8334265503637337  0.3288782308616069
  0.8334246823859975  0.6668557944568193  0.3288795161215290
 
  0.00000000E+00  0.00000000E+00  0.00000000E+00
  0.00000000E+00  0.00000000E+00  0.00000000E+00
  0.00000000E+00  0.00000000E+00  0.00000000E+00
  0.00000000E+00  0.00000000E+00  0.00000000E+00
  0.00000000E+00  0.00000000E+00  0.00000000E+00
  0.00000000E+00  0.00000000E+00  0.00000000E+00
  0.00000000E+00  0.00000000E+00  0.00000000E+00
  0.00000000E+00  0.00000000E+00  0.00000000E+00
  0.00000000E+00  0.00000000E+00  0.00000000E+00
  0.00000000E+00  0.00000000E+00  0.00000000E+00
  0.00000000E+00  0.00000000E+00  0.00000000E+00
  0.00000000E+00  0.00000000E+00  0.00000000E+00
  0.00000000E+00  0.00000000E+00  0.00000000E+00
  0.00000000E+00  0.00000000E+00  0.00000000E+00
  0.00000000E+00  0.00000000E+00  0.00000000E+00
  0.00000000E+00  0.00000000E+00  0.00000000E+00
