Graphene-BC3 Hollow with lattice paramet
   1.00000000000000     
     4.3136725362502881    2.4904999999999999    0.0000000000000000
    -4.3136725362502881    2.4904999999999999    0.0000000000000000
     0.0000000000000000    0.0000000000000000   15.0000000000000000
   B    C 
     2    14
Direct
  0.3383338971385030  0.6691660332243523  0.1000393602442333
  0.6716650511752696  0.3358358793668284  0.0999946815234927
  0.1650051043211762  0.3225331926520352  0.0999882340211481
  0.3249714674499315  0.1624976480934304  0.1000049477766137
  0.1650317780377738  0.8424947954714189  0.0999882342913656
  0.8449968865231924  0.1624734408340585  0.1000047992698347
  0.6849644705125157  0.8424679565327579  0.0999881925346926
  0.8450251570114884  0.6825259421558960  0.1000047962906366
  0.3333441265052659  0.1666717682293327  0.3255351205252118
  0.5000304498222303  0.0000649904601379  0.3255446091569222
  0.3333316648722594  0.6666655511060190  0.3254838634080195
  0.5000304500588921  0.4999650455308758  0.3255446066739749
  0.8333291260618151  0.1666726710743470  0.3255342917704133
  0.0000009851052426  0.0000002847373834  0.3255316977695828
  0.8333291354527245  0.6666558831753641  0.3255342972169865
  0.9999355832850529  0.4999675840224574  0.3255449341935438
 
  0.00000000E+00  0.00000000E+00  0.00000000E+00
  0.00000000E+00  0.00000000E+00  0.00000000E+00
  0.00000000E+00  0.00000000E+00  0.00000000E+00
  0.00000000E+00  0.00000000E+00  0.00000000E+00
  0.00000000E+00  0.00000000E+00  0.00000000E+00
  0.00000000E+00  0.00000000E+00  0.00000000E+00
  0.00000000E+00  0.00000000E+00  0.00000000E+00
  0.00000000E+00  0.00000000E+00  0.00000000E+00
  0.00000000E+00  0.00000000E+00  0.00000000E+00
  0.00000000E+00  0.00000000E+00  0.00000000E+00
  0.00000000E+00  0.00000000E+00  0.00000000E+00
  0.00000000E+00  0.00000000E+00  0.00000000E+00
  0.00000000E+00  0.00000000E+00  0.00000000E+00
  0.00000000E+00  0.00000000E+00  0.00000000E+00
  0.00000000E+00  0.00000000E+00  0.00000000E+00
  0.00000000E+00  0.00000000E+00  0.00000000E+00
