Graphene-BC3 Hollow with lattice paramet
   1.00000000000000     
     4.3682321366887074    2.5219999999999994    0.0000000000000000
    -4.3682321366887074    2.5219999999999994    0.0000000000000000
     0.0000000000000000    0.0000000000000000   15.0000000000000000
   B    C 
     2    14
Direct
  0.3383442877433910  0.6691709112403835  0.1001726327024924
  0.6716930196709435  0.3358210999039001  0.0999792077729021
  0.1669660245972645  0.3264574322224943  0.0999428454283843
  0.3286868541656345  0.1643525060171278  0.1000153609869804
  0.1669964005624247  0.8405266576557128  0.0999428463357494
  0.8431190132801043  0.1643392083821036  0.1000149082593935
  0.6810390974005983  0.8405197423027240  0.0999425447244314
  0.8431437950136462  0.6788046240543709  0.1000148948183435
  0.3333768798865295  0.1666873551420490  0.3255432970221204
  0.5001266225784479  0.0002709202214437  0.3255863717289238
  0.3333289759678250  0.6666634559543257  0.3253259995782312
  0.5001266235119639  0.4998568552878611  0.3255863628831496
  0.8333198087778747  0.1666914403347141  0.3255397880598681
  0.0000049244404940  0.0000030346433839  0.3255320461639796
  0.8333198457287990  0.6666262701262086  0.3255398113626305
  0.9997331600073928  0.4998671531778914  0.3255877488390916
 
  0.00000000E+00  0.00000000E+00  0.00000000E+00
  0.00000000E+00  0.00000000E+00  0.00000000E+00
  0.00000000E+00  0.00000000E+00  0.00000000E+00
  0.00000000E+00  0.00000000E+00  0.00000000E+00
  0.00000000E+00  0.00000000E+00  0.00000000E+00
  0.00000000E+00  0.00000000E+00  0.00000000E+00
  0.00000000E+00  0.00000000E+00  0.00000000E+00
  0.00000000E+00  0.00000000E+00  0.00000000E+00
  0.00000000E+00  0.00000000E+00  0.00000000E+00
  0.00000000E+00  0.00000000E+00  0.00000000E+00
  0.00000000E+00  0.00000000E+00  0.00000000E+00
  0.00000000E+00  0.00000000E+00  0.00000000E+00
  0.00000000E+00  0.00000000E+00  0.00000000E+00
  0.00000000E+00  0.00000000E+00  0.00000000E+00
  0.00000000E+00  0.00000000E+00  0.00000000E+00
  0.00000000E+00  0.00000000E+00  0.00000000E+00
