Graphene-Borophene Hollow 2 with lattice
   1.00000000000000     
     4.2911558757518931    2.4775000000000000    0.0000000000000000
    -4.2911558757518931    2.4775000000000000    0.0000000000000000
     0.0000000000000000    0.0000000000000000   15.0000000000000000
   B    C 
     8     8
Direct
  0.6690844301939546 -0.0000002135476029  0.1680699763471955
  0.3309143562584452 -0.0000002135476029  0.1680699763471955
  0.0000002135476029  0.3309145698060481  0.1680699763471956
  0.0000002135476029  0.6690846437415574  0.1680699763471955
  0.3309143562584452  0.3309145698060481  0.1680699763471956
  0.6690844301939546  0.6690846437415573  0.1680699763471955
  0.6666659999999993  0.3333330000000032  0.1568149252902762
  0.3333330000000032  0.6666659999999993  0.1806095089615159
  0.3334604378199380  0.1667302189099761  0.4022908433639296
  0.5000448905473590  0.0000897810947175  0.4024913090390386
  0.3333326666666636  0.6666663333333389  0.4024335304425297
  0.5000448905473590  0.4999541094526442  0.4024913090390386
  0.8332687810900260  0.1667302189099761  0.4022908433639296
  0.9999996666666675  0.9999993333333350  0.4021757200135919
  0.8332687810900260  0.6665385621800642  0.4022908433639296
 -0.0000907810947149  0.4999541094526442  0.4024913090390386
 
  0.00000000E+00  0.00000000E+00  0.00000000E+00
  0.00000000E+00  0.00000000E+00  0.00000000E+00
  0.00000000E+00  0.00000000E+00  0.00000000E+00
  0.00000000E+00  0.00000000E+00  0.00000000E+00
  0.00000000E+00  0.00000000E+00  0.00000000E+00
  0.00000000E+00  0.00000000E+00  0.00000000E+00
  0.00000000E+00  0.00000000E+00  0.00000000E+00
  0.00000000E+00  0.00000000E+00  0.00000000E+00
  0.00000000E+00  0.00000000E+00  0.00000000E+00
  0.00000000E+00  0.00000000E+00  0.00000000E+00
  0.00000000E+00  0.00000000E+00  0.00000000E+00
  0.00000000E+00  0.00000000E+00  0.00000000E+00
  0.00000000E+00  0.00000000E+00  0.00000000E+00
  0.00000000E+00  0.00000000E+00  0.00000000E+00
  0.00000000E+00  0.00000000E+00  0.00000000E+00
  0.00000000E+00  0.00000000E+00  0.00000000E+00
