BC3 with lattice parameter 5.169        
   1.00000000000000     
     4.4764850000000003    2.5844999999999998    0.0000000000000000
    -4.4764850000000003    2.5844999999999998    0.0000000000000000
     0.0000000000000000    0.0000000000000000   15.0000000000000000
   B    C 
     2     6
Direct
  0.3383342110952864  0.6691650860340599  0.2500000000000000
  0.6716663094507791  0.3358318894500141  0.2500000000000000
  0.1637461452890889  0.3199998874355922  0.2500000000000000
  0.3224998864949920  0.1612503196090234  0.2500000000000000
  0.1637543020862115  0.8437488676083704  0.2500000000000000
  0.8462441629710105  0.1612508939317298  0.2500000000000000
  0.6874996125708841  0.8437500629921718  0.2500000000000000
  0.8462513700417497  0.6849989929390373  0.2500000000000000
 
  0.00000000E+00  0.00000000E+00  0.00000000E+00
  0.00000000E+00  0.00000000E+00  0.00000000E+00
  0.00000000E+00  0.00000000E+00  0.00000000E+00
  0.00000000E+00  0.00000000E+00  0.00000000E+00
  0.00000000E+00  0.00000000E+00  0.00000000E+00
  0.00000000E+00  0.00000000E+00  0.00000000E+00
  0.00000000E+00  0.00000000E+00  0.00000000E+00
  0.00000000E+00  0.00000000E+00  0.00000000E+00
