k-points 10
0
Gamma
10    10    1
0    0    0