Graphene-B4C3 Hollow 2 with lattice para
   1.00000000000000     
     4.2028212845658803    2.4264999999999999    0.0000000000000000
    -4.2028212845658803    2.4264999999999999    0.0000000000000000
     0.0000000000000000    0.0000000000000000   15.0000000000000000
   B    C 
     4    11
Direct
  0.0043272278844064  0.0028734495360216  0.0997976207392933
  0.3594923944877192  0.0028798675217302  0.1011276431429361
  0.0043328259226273  0.3580323235887761  0.1011293233166034
  0.6491623470403588  0.6477093500930806  0.1011307241318491
  0.3279259892158432  0.3264668593763131  0.1009021378496400
  0.6807425442795846  0.0028885948218872  0.1009157253635915
  0.0043469247989307  0.6792821910928765  0.1009186390177750
  0.1665058352929820  0.3332308773345547  0.3381910872211514
  0.3331882356933067  0.1665482929628863  0.3381929169344617
  0.1665541935251817  0.8332726211524880  0.3381957754056665
  0.3332032313518002  0.6665837853337750  0.3380831497986527
  0.6665426012989125  0.3332446097084031  0.3380831088716395
  0.8332294831149902  0.1665955819773743  0.3381950637910481
  0.6665533465205075  0.8332305351934655  0.3381920916203605
  0.8331868195728565  0.6665950603063789  0.3381909927953584
 
  0.00000000E+00  0.00000000E+00  0.00000000E+00
  0.00000000E+00  0.00000000E+00  0.00000000E+00
  0.00000000E+00  0.00000000E+00  0.00000000E+00
  0.00000000E+00  0.00000000E+00  0.00000000E+00
  0.00000000E+00  0.00000000E+00  0.00000000E+00
  0.00000000E+00  0.00000000E+00  0.00000000E+00
  0.00000000E+00  0.00000000E+00  0.00000000E+00
  0.00000000E+00  0.00000000E+00  0.00000000E+00
  0.00000000E+00  0.00000000E+00  0.00000000E+00
  0.00000000E+00  0.00000000E+00  0.00000000E+00
  0.00000000E+00  0.00000000E+00  0.00000000E+00
  0.00000000E+00  0.00000000E+00  0.00000000E+00
  0.00000000E+00  0.00000000E+00  0.00000000E+00
  0.00000000E+00  0.00000000E+00  0.00000000E+00
  0.00000000E+00  0.00000000E+00  0.00000000E+00
