Graphene-B4C3 Hollow 2 with lattice para
   1.00000000000000     
     4.2028212845658803    2.4264999999999999    0.0000000000000000
    -4.2028212845658803    2.4264999999999999    0.0000000000000000
     0.0000000000000000    0.0000000000000000   15.0000000000000000
   B    C 
     4    11
Direct
  0.0043128089952424  0.0028478624749676  0.0998018934748210
  0.3594911548220667  0.0028736206696564  0.1011056722525271
  0.0043254421869656  0.3580321341337799  0.1011077752394599
  0.6491813189884127  0.6477303019211503  0.1011130502642910
  0.3279395629954259  0.3264714149212670  0.1008894449764966
  0.6807566837330801  0.0028981063133250  0.1008933095931877
  0.0043622679872293  0.6793053476666978  0.1008944096767834
  0.1664914781007236  0.3332249284302055  0.3382064892937284
  0.3331820624577952  0.1665378304519820  0.3382083324336535
  0.1665408934778145  0.8332740897791397  0.3382103118647785
  0.3332041617823585  0.6665787865719490  0.3380973437324456
  0.6665355679953461  0.3332453645211858  0.3380973141852077
  0.8332308033539161  0.1665850141085630  0.3382096365932676
  0.6665510160170148  0.8332340158797802  0.3382060539969461
  0.8331887771066158  0.6665951821563620  0.3382049624224330
 
  0.00000000E+00  0.00000000E+00  0.00000000E+00
  0.00000000E+00  0.00000000E+00  0.00000000E+00
  0.00000000E+00  0.00000000E+00  0.00000000E+00
  0.00000000E+00  0.00000000E+00  0.00000000E+00
  0.00000000E+00  0.00000000E+00  0.00000000E+00
  0.00000000E+00  0.00000000E+00  0.00000000E+00
  0.00000000E+00  0.00000000E+00  0.00000000E+00
  0.00000000E+00  0.00000000E+00  0.00000000E+00
  0.00000000E+00  0.00000000E+00  0.00000000E+00
  0.00000000E+00  0.00000000E+00  0.00000000E+00
  0.00000000E+00  0.00000000E+00  0.00000000E+00
  0.00000000E+00  0.00000000E+00  0.00000000E+00
  0.00000000E+00  0.00000000E+00  0.00000000E+00
  0.00000000E+00  0.00000000E+00  0.00000000E+00
  0.00000000E+00  0.00000000E+00  0.00000000E+00
