Graphene-B4C3 Hollow 1 with lattice para
   1.00000000000000     
     4.2132135894112936    2.4325000000000001    0.0000000000000000
    -4.2132135894112936    2.4325000000000001    0.0000000000000000
     0.0000000000000000    0.0000000000000000   15.0000000000000000
   B    C 
     4    11
Direct
  0.0269218649842098 -0.0170926598278044  0.1038860365353865
  0.3817803625795744 -0.0177383900653828  0.1000018086409500
  0.0272312592578088  0.3375369750449449  0.1002162693389098
  0.6723542315775956  0.6270307143502581  0.1001389106854548
  0.3505484025345429  0.3054697879658494  0.1004667100485542
  0.7035104687577319 -0.0177245200854329  0.1002082398009943
  0.0268569922563689  0.6590287449764684  0.1004949215225824
  0.0910638250595399  0.4067272097975251  0.3382799411892831
  0.2578057746806885  0.2401676982745862  0.3383670691323036
  0.0911433230282915  0.9067553208589957  0.3382697760987001
  0.2578847600124818  0.7400791866369845  0.3382680608701201
  0.5911548363922050  0.4066987536259268  0.3382666267454585
  0.7577881525049376  0.2400657431251782  0.3382694930063508
  0.5911092620952407  0.9067949981295478  0.3383740934394182
  0.7576960398343335  0.7400788816368234  0.3382713762788548
 
  0.00000000E+00  0.00000000E+00  0.00000000E+00
  0.00000000E+00  0.00000000E+00  0.00000000E+00
  0.00000000E+00  0.00000000E+00  0.00000000E+00
  0.00000000E+00  0.00000000E+00  0.00000000E+00
  0.00000000E+00  0.00000000E+00  0.00000000E+00
  0.00000000E+00  0.00000000E+00  0.00000000E+00
  0.00000000E+00  0.00000000E+00  0.00000000E+00
  0.00000000E+00  0.00000000E+00  0.00000000E+00
  0.00000000E+00  0.00000000E+00  0.00000000E+00
  0.00000000E+00  0.00000000E+00  0.00000000E+00
  0.00000000E+00  0.00000000E+00  0.00000000E+00
  0.00000000E+00  0.00000000E+00  0.00000000E+00
  0.00000000E+00  0.00000000E+00  0.00000000E+00
  0.00000000E+00  0.00000000E+00  0.00000000E+00
  0.00000000E+00  0.00000000E+00  0.00000000E+00
