Graphene-Borophene Bridge with lattice p
   1.00000000000000     
     4.3474475269978816    2.5099999999999998    0.0000000000000000
    -4.3474475269978816    2.5099999999999998    0.0000000000000000
     0.0000000000000000    0.0000000000000000   15.0000000000000000
   B    C 
     8     8
Direct
  0.6695165908304462 -0.0000254942457692  0.1636039224780756
  0.3308556905640365  0.0000752738569363  0.1637984197026442
  0.0000254942457692  0.3304824091695563  0.1636039224780756
 -0.0000752738569363  0.6691433094359660  0.1637984197026442
  0.3309065224512136  0.3307835313073600  0.1638271405359041
  0.6692154686926425  0.6690924775487888  0.1638271405359041
  0.6666254315697212  0.3333735684302814  0.1828939903132061
  0.3332737359421417  0.6667252640578608  0.1602503103785549
  0.2531221690264601  0.2533491576858166  0.4038137620766739
  0.4188273009936536  0.0822794780522703  0.4029072575891094
  0.2503884295578488  0.7496105704421537  0.4023049790660048
  0.4158874254535900  0.5841115745464128  0.4032846596327425
  0.7479796346821663  0.2520193653178363  0.4035253923723552
  0.9157416822520321  0.0842573177479704  0.4043729968056940
  0.7466498423141857  0.7468768309735423  0.4038137620766739
  0.9177195219477323  0.5811716990063490  0.4029072575891094
 
  0.00000000E+00  0.00000000E+00  0.00000000E+00
  0.00000000E+00  0.00000000E+00  0.00000000E+00
  0.00000000E+00  0.00000000E+00  0.00000000E+00
  0.00000000E+00  0.00000000E+00  0.00000000E+00
  0.00000000E+00  0.00000000E+00  0.00000000E+00
  0.00000000E+00  0.00000000E+00  0.00000000E+00
  0.00000000E+00  0.00000000E+00  0.00000000E+00
  0.00000000E+00  0.00000000E+00  0.00000000E+00
  0.00000000E+00  0.00000000E+00  0.00000000E+00
  0.00000000E+00  0.00000000E+00  0.00000000E+00
  0.00000000E+00  0.00000000E+00  0.00000000E+00
  0.00000000E+00  0.00000000E+00  0.00000000E+00
  0.00000000E+00  0.00000000E+00  0.00000000E+00
  0.00000000E+00  0.00000000E+00  0.00000000E+00
  0.00000000E+00  0.00000000E+00  0.00000000E+00
  0.00000000E+00  0.00000000E+00  0.00000000E+00
