Graphene-BC3 Hollow with lattice paramet
   1.00000000000000     
     4.3301270189221919    2.4999999999999996    0.0000000000000000
    -4.3301270189221919    2.4999999999999996    0.0000000000000000
     0.0000000000000000    0.0000000000000000   15.0000000000000000
   B    C 
     2    14
Direct
  0.3382588889944640  0.6691277661379333  0.1006063195954991
  0.6715956592905676  0.3357950774023839  0.1002896346173963
  0.1648243752588054  0.3222572295877753  0.1003139280153931
  0.3246505247022493  0.1623222994101128  0.1003281178686990
  0.1648243528933697  0.8425615761161337  0.1003131707368062
  0.8450613440354091  0.1623224869983509  0.1002986155074082
  0.6851250066535784  0.8425603730643473  0.1002842522319045
  0.8450616142950105  0.6827348819151341  0.1002978400432707
  0.3334223914041446  0.1667132464606081  0.3252432967267590
  0.5001116543212706  0.0001172216833502  0.3252195807742182
  0.3334042634237028  0.6667041957814080  0.3249372162117867
  0.5001116582655022  0.4999979135155658  0.3252195746252244
  0.8333994908954601  0.1667144407795819  0.3252383795688613
  0.0000765105853008  0.0000399974213870  0.3252182712534747
  0.8333994994034610  0.6666891646104378  0.3252383748479540
 -0.0000019010889631  0.5000007957821853  0.3252200940420164
 
  0.00000000E+00  0.00000000E+00  0.00000000E+00
  0.00000000E+00  0.00000000E+00  0.00000000E+00
  0.00000000E+00  0.00000000E+00  0.00000000E+00
  0.00000000E+00  0.00000000E+00  0.00000000E+00
  0.00000000E+00  0.00000000E+00  0.00000000E+00
  0.00000000E+00  0.00000000E+00  0.00000000E+00
  0.00000000E+00  0.00000000E+00  0.00000000E+00
  0.00000000E+00  0.00000000E+00  0.00000000E+00
  0.00000000E+00  0.00000000E+00  0.00000000E+00
  0.00000000E+00  0.00000000E+00  0.00000000E+00
  0.00000000E+00  0.00000000E+00  0.00000000E+00
  0.00000000E+00  0.00000000E+00  0.00000000E+00
  0.00000000E+00  0.00000000E+00  0.00000000E+00
  0.00000000E+00  0.00000000E+00  0.00000000E+00
  0.00000000E+00  0.00000000E+00  0.00000000E+00
  0.00000000E+00  0.00000000E+00  0.00000000E+00
