Graphene-B4C3 Top with lattice parameter
   1.00000000000000     
     4.2028212845658803    2.4264999999999999    0.0000000000000000
    -4.2028212845658803    2.4264999999999999    0.0000000000000000
     0.0000000000000000    0.0000000000000000   15.0000000000000000
   B    C 
     4    11
Direct
  0.0040828078706135  0.0027124176745651  0.1008720794957130
  0.3592677974017651  0.0030112785840082  0.1006625900709740
  0.0037776580104728  0.3575948137805109  0.1006633827501069
  0.6491945880258236  0.6475290161072865  0.1006592979046683
  0.3277652556838450  0.3260739727914125  0.1006253811198240
  0.6807186610285256  0.0030350086867562  0.1006186419813635
  0.0037623682057505  0.6790264998180008  0.1006145095669264
  0.0001119928931844  0.5000504386442244  0.3348540688314181
  0.1667598742950666  0.3334367953846922  0.3348894089606777
  0.0000920268541347  0.0000557926851719  0.3348118230639158
  0.1667991378083256  0.8333857821312499  0.3348932474877293
  0.5001000180259105  0.5000848741989912  0.3348572288210847
  0.6667559103050218  0.3333904291577625  0.3347492094745030
  0.5000638890206955  0.0000355953319620  0.3348523462906872
  0.6667086812375580  0.8333446183567325  0.3348894508470906
 
  0.00000000E+00  0.00000000E+00  0.00000000E+00
  0.00000000E+00  0.00000000E+00  0.00000000E+00
  0.00000000E+00  0.00000000E+00  0.00000000E+00
  0.00000000E+00  0.00000000E+00  0.00000000E+00
  0.00000000E+00  0.00000000E+00  0.00000000E+00
  0.00000000E+00  0.00000000E+00  0.00000000E+00
  0.00000000E+00  0.00000000E+00  0.00000000E+00
  0.00000000E+00  0.00000000E+00  0.00000000E+00
  0.00000000E+00  0.00000000E+00  0.00000000E+00
  0.00000000E+00  0.00000000E+00  0.00000000E+00
  0.00000000E+00  0.00000000E+00  0.00000000E+00
  0.00000000E+00  0.00000000E+00  0.00000000E+00
  0.00000000E+00  0.00000000E+00  0.00000000E+00
  0.00000000E+00  0.00000000E+00  0.00000000E+00
  0.00000000E+00  0.00000000E+00  0.00000000E+00
