Graphene-B4C3 Top with lattice parameter
   1.00000000000000     
     4.2028212845658803    2.4264999999999999    0.0000000000000000
    -4.2028212845658803    2.4264999999999999    0.0000000000000000
     0.0000000000000000    0.0000000000000000   15.0000000000000000
   B    C 
     4    11
Direct
  0.0040863030197747  0.0027188633254166  0.1008726276011097
  0.3592684222667041  0.0030166885025982  0.1006659876398461
  0.0037762391003874  0.3575876228384913  0.1006666822105445
  0.6491958455847960  0.6475292829534519  0.1006626697778784
  0.3277670801501348  0.3260745792688297  0.1006315369670580
  0.6807165253186618  0.0030406959697835  0.1006222282112473
  0.0037630200990956  0.6790179686952532  0.1006175536959760
  0.0001076705465130  0.5000439865713605  0.3348512719336798
  0.1667598715759452  0.3334430538643361  0.3348872388328780
  0.0000898287763307  0.0000551584232950  0.3348076776380911
  0.1668080627281223  0.8333875861033921  0.3348909578901803
  0.5001027364673479  0.5000880633598737  0.3348545478064618
  0.6667574155886821  0.3333904086011221  0.3347451001717762
  0.5000577409448691  0.0000369003444828  0.3348494396601189
  0.6667039044993287  0.8333364745116398  0.3348871466298364
 
  0.00000000E+00  0.00000000E+00  0.00000000E+00
  0.00000000E+00  0.00000000E+00  0.00000000E+00
  0.00000000E+00  0.00000000E+00  0.00000000E+00
  0.00000000E+00  0.00000000E+00  0.00000000E+00
  0.00000000E+00  0.00000000E+00  0.00000000E+00
  0.00000000E+00  0.00000000E+00  0.00000000E+00
  0.00000000E+00  0.00000000E+00  0.00000000E+00
  0.00000000E+00  0.00000000E+00  0.00000000E+00
  0.00000000E+00  0.00000000E+00  0.00000000E+00
  0.00000000E+00  0.00000000E+00  0.00000000E+00
  0.00000000E+00  0.00000000E+00  0.00000000E+00
  0.00000000E+00  0.00000000E+00  0.00000000E+00
  0.00000000E+00  0.00000000E+00  0.00000000E+00
  0.00000000E+00  0.00000000E+00  0.00000000E+00
  0.00000000E+00  0.00000000E+00  0.00000000E+00
