Graphene-BC3 Hollow with lattice paramet
   1.00000000000000     
     4.4080693052627904    2.5449999999999990    0.0000000000000000
    -4.4080693052627904    2.5449999999999990    0.0000000000000000
     0.0000000000000000    0.0000000000000000   15.0000000000000000
   B    C 
     2    14
Direct
  0.3383309513090415  0.6691650325811712  0.1002786379189092
  0.6716661991145071  0.3358328166304319  0.0999666522464176
  0.1643206862791085  0.3211465280621875  0.0999563970240916
  0.3235670029305565  0.1617830321378093  0.0999635470583729
  0.1643208500262249  0.8431740932209228  0.0999564235927302
  0.8457103406855677  0.1617821662759106  0.0999622369999665
  0.6863425494787196  0.8431711798750879  0.0999549524855968
  0.8457104349380091  0.6839271190694675  0.0999622595775089
  0.3333550415388082  0.1666773411489052  0.3255835622062078
  0.5000450419342962  0.0000910326233728  0.3255610385507739
  0.3333342360751462  0.6666669377937929  0.3252751212837080
  0.5000450428402147  0.4999536411990310  0.3255610387098914
  0.8333288812228811  0.1666789273680851  0.3255788754940899
  0.0000048421455361  0.0000022367007436  0.3255653883049807
  0.8333288798131121  0.6666495899183000  0.3255788746631109
  0.9999143530016048  0.4999569920614751  0.3255616605503158
 
  0.00000000E+00  0.00000000E+00  0.00000000E+00
  0.00000000E+00  0.00000000E+00  0.00000000E+00
  0.00000000E+00  0.00000000E+00  0.00000000E+00
  0.00000000E+00  0.00000000E+00  0.00000000E+00
  0.00000000E+00  0.00000000E+00  0.00000000E+00
  0.00000000E+00  0.00000000E+00  0.00000000E+00
  0.00000000E+00  0.00000000E+00  0.00000000E+00
  0.00000000E+00  0.00000000E+00  0.00000000E+00
  0.00000000E+00  0.00000000E+00  0.00000000E+00
  0.00000000E+00  0.00000000E+00  0.00000000E+00
  0.00000000E+00  0.00000000E+00  0.00000000E+00
  0.00000000E+00  0.00000000E+00  0.00000000E+00
  0.00000000E+00  0.00000000E+00  0.00000000E+00
  0.00000000E+00  0.00000000E+00  0.00000000E+00
  0.00000000E+00  0.00000000E+00  0.00000000E+00
  0.00000000E+00  0.00000000E+00  0.00000000E+00
