Graphene-B4C3 Bridge with lattice parame
   1.00000000000000     
     4.2166776910264314    2.4344999999999999    0.0000000000000000
    -4.2166776910264314    2.4344999999999999    0.0000000000000000
     0.0000000000000000    0.0000000000000000   15.0000000000000000
   B    C 
     4    11
Direct
  0.0467176368155874 -0.0376154785749227  0.1003175637802173
  0.4018906131181110 -0.0372990169674111  0.1021089076366599
  0.0463507909645478  0.3171571493731618  0.1021613936889557
  0.6918625998133021  0.6073286039389743  0.1021479969937473
  0.3702469061784289  0.2856001480716560  0.1018117095050416
  0.7235268306829497 -0.0371932459046583  0.1019478859071914
  0.0464482066331416  0.6389499673185322  0.1018407885551976
  0.0461123495819878  0.4519738525924779  0.3366244540872167
  0.2127768656689655  0.2853360251854012  0.3366657873416857
  0.0461176706704765  0.9520002066464610  0.3365897661805600
  0.2128448647497059  0.7853100355133544  0.3366777009288904
  0.5461366375005497  0.4520146335694336  0.3366341867255037
  0.7127919600456571  0.2853165694378677  0.3365524271163301
  0.5460692436391037  0.9519632783666738  0.3366283976771308
  0.7127341572708059  0.7852579380996950  0.3366703672090077
 
  0.00000000E+00  0.00000000E+00  0.00000000E+00
  0.00000000E+00  0.00000000E+00  0.00000000E+00
  0.00000000E+00  0.00000000E+00  0.00000000E+00
  0.00000000E+00  0.00000000E+00  0.00000000E+00
  0.00000000E+00  0.00000000E+00  0.00000000E+00
  0.00000000E+00  0.00000000E+00  0.00000000E+00
  0.00000000E+00  0.00000000E+00  0.00000000E+00
  0.00000000E+00  0.00000000E+00  0.00000000E+00
  0.00000000E+00  0.00000000E+00  0.00000000E+00
  0.00000000E+00  0.00000000E+00  0.00000000E+00
  0.00000000E+00  0.00000000E+00  0.00000000E+00
  0.00000000E+00  0.00000000E+00  0.00000000E+00
  0.00000000E+00  0.00000000E+00  0.00000000E+00
  0.00000000E+00  0.00000000E+00  0.00000000E+00
  0.00000000E+00  0.00000000E+00  0.00000000E+00
