Graphene-BC3 Top with lattice parameter 
   1.00000000000000     
     4.3041462568086599    2.4849999999999999    0.0000000000000000
    -4.3041462568086599    2.4849999999999999    0.0000000000000000
     0.0000000000000000    0.0000000000000000   15.0000000000000000
   B    C 
     2    14
Direct
  0.3398139982327370  0.6699644181720098  0.1021000012311783
  0.6732918792962416  0.3366701630587507  0.1020794044880141
  0.1668643617594716  0.3235144363234018  0.0984573015411471
  0.3267092933248451  0.1632785662661606  0.0949996223102768
  0.1668206842818691  0.8431869146299457  0.0984236339139894
  0.8464636241731479  0.1633982038998403  0.1052974097822730
  0.6865508516966227  0.8431364555404748  0.1086909139536619
  0.8464739022417783  0.6830410198120421  0.1052385709363435
  0.1649434318997969  0.3323842447168172  0.3269098359013863
  0.3315424657990517  0.1658100771430947  0.3268503021094558
  0.1649442843053988  0.8326315832282136  0.3269090721809697
  0.3317111611347009  0.6658943755527564  0.3266485969509444
  0.6650466240364982  0.3325601914626560  0.3266456172166433
  0.8317894239240118  0.1657866479313460  0.3270300432145419
  0.6652366422288416  0.8326557311728701  0.3270900381183787
  0.8317893716650048  0.6660789710896264  0.3270296361508154
 
  0.00000000E+00  0.00000000E+00  0.00000000E+00
  0.00000000E+00  0.00000000E+00  0.00000000E+00
  0.00000000E+00  0.00000000E+00  0.00000000E+00
  0.00000000E+00  0.00000000E+00  0.00000000E+00
  0.00000000E+00  0.00000000E+00  0.00000000E+00
  0.00000000E+00  0.00000000E+00  0.00000000E+00
  0.00000000E+00  0.00000000E+00  0.00000000E+00
  0.00000000E+00  0.00000000E+00  0.00000000E+00
  0.00000000E+00  0.00000000E+00  0.00000000E+00
  0.00000000E+00  0.00000000E+00  0.00000000E+00
  0.00000000E+00  0.00000000E+00  0.00000000E+00
  0.00000000E+00  0.00000000E+00  0.00000000E+00
  0.00000000E+00  0.00000000E+00  0.00000000E+00
  0.00000000E+00  0.00000000E+00  0.00000000E+00
  0.00000000E+00  0.00000000E+00  0.00000000E+00
  0.00000000E+00  0.00000000E+00  0.00000000E+00
