Graphene-B4C3 Bridge with lattice parame
   1.00000000000000     
     4.1932950051242512    2.4209999999999998    0.0000000000000000
    -4.1932950051242512    2.4209999999999998    0.0000000000000000
     0.0000000000000000    0.0000000000000000   15.0000000000000000
   B    C 
     4    11
Direct
  0.0041485961786781  0.0026975050158077  0.1187184102977943
  0.3568231698183982  0.0028078688743711  0.0979413438340379
  0.0041576068695221  0.3554439161238953  0.0980303387565403
  0.6516141056056980  0.6500078752207252  0.0979937378147636
  0.3266616368157118  0.3250110231244338  0.1002669025230902
  0.6820208648748509  0.0028535405786649  0.1003152118163013
  0.0041818064108748  0.6803345239346269  0.1002501005718627
  0.0832854872556537  0.4166574413891686  0.3364675537174445
  0.2498885945953249  0.2499865927823195  0.3365856335488603
  0.0832168897771154  0.9166432793687623  0.3364566114294030
  0.2498371197668645  0.7500618946026556  0.3364271252934579
  0.5833171938045909  0.4166790132579039  0.3364155659335850
  0.7499685862949163  0.2500292846850827  0.3364586233981339
  0.5833995610602637  0.9167521698931551  0.3365613485642871
  0.7501061142048583  0.7501347378151243  0.3364908258337740
 
  0.00000000E+00  0.00000000E+00  0.00000000E+00
  0.00000000E+00  0.00000000E+00  0.00000000E+00
  0.00000000E+00  0.00000000E+00  0.00000000E+00
  0.00000000E+00  0.00000000E+00  0.00000000E+00
  0.00000000E+00  0.00000000E+00  0.00000000E+00
  0.00000000E+00  0.00000000E+00  0.00000000E+00
  0.00000000E+00  0.00000000E+00  0.00000000E+00
  0.00000000E+00  0.00000000E+00  0.00000000E+00
  0.00000000E+00  0.00000000E+00  0.00000000E+00
  0.00000000E+00  0.00000000E+00  0.00000000E+00
  0.00000000E+00  0.00000000E+00  0.00000000E+00
  0.00000000E+00  0.00000000E+00  0.00000000E+00
  0.00000000E+00  0.00000000E+00  0.00000000E+00
  0.00000000E+00  0.00000000E+00  0.00000000E+00
  0.00000000E+00  0.00000000E+00  0.00000000E+00
