Graphene-B4C3 Bridge with lattice parame
   1.00000000000000     
     4.1932950051242512    2.4209999999999998    0.0000000000000000
    -4.1932950051242512    2.4209999999999998    0.0000000000000000
     0.0000000000000000    0.0000000000000000   15.0000000000000000
   B    C 
     4    11
Direct
  0.0045407438748605  0.0024581681950347  0.1051281290788952
  0.3594285078017535  0.0023500078064060  0.1006957809910840
  0.0046712995781149  0.3573375784178794  0.1010599967382955
  0.6499147545694944  0.6473496945569249  0.1009549708340402
  0.3283982987454485  0.3259645742098520  0.1013184997543740
  0.6809922751306339  0.0022869706969152  0.1016874023692911
  0.0046494251746788  0.6786652630050747  0.1014090416254405
  0.0829752927131008  0.4170508953357459  0.3365879649453828
  0.2495839577255918  0.2503202995960324  0.3367591740507147
  0.0830108891175301  0.9171487398485367  0.3366719758387305
  0.2496680748927159  0.7504378618531109  0.3365858735826612
  0.5828803974381419  0.4170727277391022  0.3365937256981719
  0.7495884667669827  0.2504252766538957  0.3365709003448307
  0.5828164016222459  0.9169079128044167  0.3367131979112300
  0.7495085481820282  0.7503246959477693  0.3366426995701938
 
  0.00000000E+00  0.00000000E+00  0.00000000E+00
  0.00000000E+00  0.00000000E+00  0.00000000E+00
  0.00000000E+00  0.00000000E+00  0.00000000E+00
  0.00000000E+00  0.00000000E+00  0.00000000E+00
  0.00000000E+00  0.00000000E+00  0.00000000E+00
  0.00000000E+00  0.00000000E+00  0.00000000E+00
  0.00000000E+00  0.00000000E+00  0.00000000E+00
  0.00000000E+00  0.00000000E+00  0.00000000E+00
  0.00000000E+00  0.00000000E+00  0.00000000E+00
  0.00000000E+00  0.00000000E+00  0.00000000E+00
  0.00000000E+00  0.00000000E+00  0.00000000E+00
  0.00000000E+00  0.00000000E+00  0.00000000E+00
  0.00000000E+00  0.00000000E+00  0.00000000E+00
  0.00000000E+00  0.00000000E+00  0.00000000E+00
  0.00000000E+00  0.00000000E+00  0.00000000E+00
