Graphene-BC3 Bridge with lattice paramet
   1.00000000000000     
     4.3682321366887074    2.5219999999999994    0.0000000000000000
    -4.3682321366887074    2.5219999999999994    0.0000000000000000
     0.0000000000000000    0.0000000000000000   15.0000000000000000
   B    C 
     2    14
Direct
  0.3211369340911629  0.6874953936718743  0.1012512238045977
  0.6546118985074195  0.3540422801656092  0.1007725726942196
  0.1474789500459934  0.3399727016826588  0.1007133848895641
  0.3069901743001606  0.1805029808453371  0.1010244506596387
  0.1474457102058085  0.8612220145998105  0.1014488451030244
  0.8282670499145856  0.1803290238380778  0.1005801207539849
  0.6685758622940355  0.8611032391080053  0.1007022340675100
  0.8281885442360138  0.7015978183566403  0.1009868221806930
  0.2671635476348403  0.2316585728482356  0.3255951588587482
  0.4337518624325783  0.0650776208912122  0.3252902708090162
  0.2671634958812885  0.7317105194027905  0.3250469972018488
  0.4338986408858958  0.5649896960366952  0.3252944202617177
  0.7671573012297921  0.2317052431092251  0.3254014579639548
  0.9338010569485783  0.0650813557774652  0.3257023063477248
  0.7672256990147053  0.7317149237821121  0.3255816229910968
  0.9338019390438483  0.5651219492175724  0.3252747780793172
 
  0.00000000E+00  0.00000000E+00  0.00000000E+00
  0.00000000E+00  0.00000000E+00  0.00000000E+00
  0.00000000E+00  0.00000000E+00  0.00000000E+00
  0.00000000E+00  0.00000000E+00  0.00000000E+00
  0.00000000E+00  0.00000000E+00  0.00000000E+00
  0.00000000E+00  0.00000000E+00  0.00000000E+00
  0.00000000E+00  0.00000000E+00  0.00000000E+00
  0.00000000E+00  0.00000000E+00  0.00000000E+00
  0.00000000E+00  0.00000000E+00  0.00000000E+00
  0.00000000E+00  0.00000000E+00  0.00000000E+00
  0.00000000E+00  0.00000000E+00  0.00000000E+00
  0.00000000E+00  0.00000000E+00  0.00000000E+00
  0.00000000E+00  0.00000000E+00  0.00000000E+00
  0.00000000E+00  0.00000000E+00  0.00000000E+00
  0.00000000E+00  0.00000000E+00  0.00000000E+00
  0.00000000E+00  0.00000000E+00  0.00000000E+00
