Graphene-BC3 Top with lattice parameter 
   1.00000000000000     
     4.3864186701681822    2.5325000000000002    0.0000000000000000
    -4.3864186701681822    2.5325000000000002    0.0000000000000000
     0.0000000000000000    0.0000000000000000   15.0000000000000000
   B    C 
     2    14
Direct
  0.3384085070176908  0.6692041516753552  0.1000291963946127
  0.6717417911522358  0.3358703654140902  0.1000291176373522
  0.1645674776379242  0.3215139616495264  0.0997050852438015
  0.3240555035490168  0.1620263215201431  0.0996974288290697
  0.1645673527832024  0.8430508896529502  0.0997049209922583
  0.8455932147854807  0.1620252498243283  0.0997200758209480
  0.6861087572469068  0.8430530847916887  0.0997273855542217
  0.8455933842710277  0.6835660433401922  0.0997198403095152
  0.1664870964693064  0.3330943185096495  0.3290837220607515
  0.3330535995340020  0.1665273296435176  0.3290847736425083
  0.1664871122307319  0.8333936809469424  0.3290837187762840
  0.3332516054420939  0.6666263429633444  0.3287858414341664
  0.6665850410157357  0.3332929873977689  0.3287858440076937
  0.8333530520344252  0.1665279049536705  0.3290814307445671
  0.6667854687055648  0.8333931958148231  0.3290801916224971
  0.8333530361246748  0.6668261719020184  0.3290814269297724
 
  0.00000000E+00  0.00000000E+00  0.00000000E+00
  0.00000000E+00  0.00000000E+00  0.00000000E+00
  0.00000000E+00  0.00000000E+00  0.00000000E+00
  0.00000000E+00  0.00000000E+00  0.00000000E+00
  0.00000000E+00  0.00000000E+00  0.00000000E+00
  0.00000000E+00  0.00000000E+00  0.00000000E+00
  0.00000000E+00  0.00000000E+00  0.00000000E+00
  0.00000000E+00  0.00000000E+00  0.00000000E+00
  0.00000000E+00  0.00000000E+00  0.00000000E+00
  0.00000000E+00  0.00000000E+00  0.00000000E+00
  0.00000000E+00  0.00000000E+00  0.00000000E+00
  0.00000000E+00  0.00000000E+00  0.00000000E+00
  0.00000000E+00  0.00000000E+00  0.00000000E+00
  0.00000000E+00  0.00000000E+00  0.00000000E+00
  0.00000000E+00  0.00000000E+00  0.00000000E+00
  0.00000000E+00  0.00000000E+00  0.00000000E+00
