Graphene-B4C3 Hollow 1 with lattice para
   1.00000000000000     
     4.1846347510864073    2.4159999999999999    0.0000000000000000
    -4.1846347510864073    2.4159999999999999    0.0000000000000000
     0.0000000000000000    0.0000000000000000   15.0000000000000000
   B    C 
     4    11
Direct
  0.0155987632714808 -0.0074765960123518  0.0966970236690934
  0.3706971549530804 -0.0073392848917835  0.1022228858681302
  0.0156513113382480  0.3474445379204055  0.1021570522076009
  0.6606973957228939  0.6375329902108791  0.1021837083507916
  0.3393964990221217  0.3162092163701784  0.1013471348206395
  0.6920108835199753 -0.0074373515486975  0.1014526923911057
  0.0155182957455140  0.6687699161792867  0.1013742901603725
  0.1011511597118939  0.3978830384257265  0.3379952571334620
  0.2677568297892438  0.2311264844706674  0.3381551826842383
  0.1011457429757255  0.8979179326692421  0.3380110640633475
  0.2678311808401279  0.7312846995593328  0.3379983707306849
  0.6010435137961597  0.3978510934714193  0.3379505400821239
  0.7676710068347361  0.2311919562792241  0.3380622610399096
  0.6009773939056687  0.8977367997939630  0.3381340552381398
  0.7677024241286808  0.7311830115469744  0.3380378148936798
 
  0.00000000E+00  0.00000000E+00  0.00000000E+00
  0.00000000E+00  0.00000000E+00  0.00000000E+00
  0.00000000E+00  0.00000000E+00  0.00000000E+00
  0.00000000E+00  0.00000000E+00  0.00000000E+00
  0.00000000E+00  0.00000000E+00  0.00000000E+00
  0.00000000E+00  0.00000000E+00  0.00000000E+00
  0.00000000E+00  0.00000000E+00  0.00000000E+00
  0.00000000E+00  0.00000000E+00  0.00000000E+00
  0.00000000E+00  0.00000000E+00  0.00000000E+00
  0.00000000E+00  0.00000000E+00  0.00000000E+00
  0.00000000E+00  0.00000000E+00  0.00000000E+00
  0.00000000E+00  0.00000000E+00  0.00000000E+00
  0.00000000E+00  0.00000000E+00  0.00000000E+00
  0.00000000E+00  0.00000000E+00  0.00000000E+00
  0.00000000E+00  0.00000000E+00  0.00000000E+00
