Graphene-B4C3 Bridge with lattice parame
   1.00000000000000     
     4.1863668018939757    2.4169999999999998    0.0000000000000000
    -4.1863668018939757    2.4169999999999998    0.0000000000000000
     0.0000000000000000    0.0000000000000000   15.0000000000000000
   B    C 
     4    11
Direct
  0.0101595392023470 -0.0029481131437110  0.1001415459610824
  0.3653622847710886 -0.0029252779199671  0.1016281166997861
  0.0100856531960578  0.3520480881513170  0.1016503725648181
  0.6552668333988725  0.6418377258415026  0.1016597501502102
  0.3340938446689591  0.3206252210079897  0.1013006407088254
  0.6866802115335242 -0.0028045774076245  0.1015922369877357
  0.0102157470315933  0.6732588216893758  0.1013742986048467
  0.0779390010240528  0.4216865893241928  0.3369363780815982
  0.2446808105658877  0.2550302349669246  0.3371037010627434
  0.0780756541345713  0.9218051922201433  0.3369782139722781
  0.2447286715888652  0.7550107683829519  0.3370133161227314
  0.5780130467647440  0.4216781332621135  0.3369559486555893
  0.7447307393064015  0.2550687678151251  0.3369789950527799
  0.5779922856141552  0.9217450584543442  0.3370488820286799
  0.7446030105322009  0.7549840340220202  0.3370169366796319
 
  0.00000000E+00  0.00000000E+00  0.00000000E+00
  0.00000000E+00  0.00000000E+00  0.00000000E+00
  0.00000000E+00  0.00000000E+00  0.00000000E+00
  0.00000000E+00  0.00000000E+00  0.00000000E+00
  0.00000000E+00  0.00000000E+00  0.00000000E+00
  0.00000000E+00  0.00000000E+00  0.00000000E+00
  0.00000000E+00  0.00000000E+00  0.00000000E+00
  0.00000000E+00  0.00000000E+00  0.00000000E+00
  0.00000000E+00  0.00000000E+00  0.00000000E+00
  0.00000000E+00  0.00000000E+00  0.00000000E+00
  0.00000000E+00  0.00000000E+00  0.00000000E+00
  0.00000000E+00  0.00000000E+00  0.00000000E+00
  0.00000000E+00  0.00000000E+00  0.00000000E+00
  0.00000000E+00  0.00000000E+00  0.00000000E+00
  0.00000000E+00  0.00000000E+00  0.00000000E+00
