Graphene-B4C3 Top with lattice parameter
   1.00000000000000     
     4.2045533353734497    2.4275000000000002    0.0000000000000000
    -4.2045533353734497    2.4275000000000002    0.0000000000000000
     0.0000000000000000    0.0000000000000000   15.0000000000000000
   B    C 
     4    11
Direct
  0.0041262771996166  0.0027669786775897  0.1014436659080026
  0.3592395373617543  0.0029736279303130  0.1009764181821395
  0.0038139749582512  0.3576029598762662  0.1009780564053618
  0.6492781865250493  0.6475972330127899  0.1009709906681945
  0.3278236864438890  0.3260383924314906  0.1009749213376808
  0.6808035339974151  0.0031090170985400  0.1009692237717273
  0.0037388881747213  0.6790550814879822  0.1009649675895944
  0.0000545255689871  0.5000105668225635  0.3345314907847840
  0.1667188161540959  0.3334088375798048  0.3345656338598053
  0.0000602655622359  0.0000366614189091  0.3344973994784133
  0.1667684391780727  0.8333748354389413  0.3345696025894482
  0.5000871394027396  0.5000578816879698  0.3345340337879822
  0.6667243763684690  0.3333707258283375  0.3344400928405249
  0.5000385648074662  0.0000415498349053  0.3345300290117184
  0.6666844549639291  0.8333229842069221  0.3345661404513056
 
  0.00000000E+00  0.00000000E+00  0.00000000E+00
  0.00000000E+00  0.00000000E+00  0.00000000E+00
  0.00000000E+00  0.00000000E+00  0.00000000E+00
  0.00000000E+00  0.00000000E+00  0.00000000E+00
  0.00000000E+00  0.00000000E+00  0.00000000E+00
  0.00000000E+00  0.00000000E+00  0.00000000E+00
  0.00000000E+00  0.00000000E+00  0.00000000E+00
  0.00000000E+00  0.00000000E+00  0.00000000E+00
  0.00000000E+00  0.00000000E+00  0.00000000E+00
  0.00000000E+00  0.00000000E+00  0.00000000E+00
  0.00000000E+00  0.00000000E+00  0.00000000E+00
  0.00000000E+00  0.00000000E+00  0.00000000E+00
  0.00000000E+00  0.00000000E+00  0.00000000E+00
  0.00000000E+00  0.00000000E+00  0.00000000E+00
  0.00000000E+00  0.00000000E+00  0.00000000E+00
