Graphene-B4C3 Top with lattice parameter
   1.00000000000000     
     4.2045533353734497    2.4275000000000002    0.0000000000000000
    -4.2045533353734497    2.4275000000000002    0.0000000000000000
     0.0000000000000000    0.0000000000000000   15.0000000000000000
   B    C 
     4    11
Direct
  0.0041255919558910  0.0027725337036349  0.1013871216675997
  0.3592183455659231  0.0029472571224526  0.1009553152618614
  0.0038249510348924  0.3576057557816568  0.1009571927588160
  0.6492793044878742  0.6476113206757159  0.1009490117196836
  0.3278310538804413  0.3260269401312557  0.1009494583547420
  0.6808072749719758  0.0031201619413094  0.1009396590587556
  0.0037197209480004  0.6790481891469101  0.1009345300281820
  0.0000682528876966  0.5000086514865365  0.3345550604440218
  0.1667174983560581  0.3334248453937119  0.3345895702531276
  0.0000666741187063  0.0000381017084304  0.3345271601517495
  0.1667811214474728  0.8333758420097601  0.3345931805359845
  0.5000974387819879  0.5000717563027546  0.3345573720192779
  0.6667224783739302  0.3333712221691653  0.3344743089248536
  0.5000336484056517  0.0000362244232444  0.3345536207162603
  0.6666673114501909  0.8333085313367864  0.3345901047717673
 
  0.00000000E+00  0.00000000E+00  0.00000000E+00
  0.00000000E+00  0.00000000E+00  0.00000000E+00
  0.00000000E+00  0.00000000E+00  0.00000000E+00
  0.00000000E+00  0.00000000E+00  0.00000000E+00
  0.00000000E+00  0.00000000E+00  0.00000000E+00
  0.00000000E+00  0.00000000E+00  0.00000000E+00
  0.00000000E+00  0.00000000E+00  0.00000000E+00
  0.00000000E+00  0.00000000E+00  0.00000000E+00
  0.00000000E+00  0.00000000E+00  0.00000000E+00
  0.00000000E+00  0.00000000E+00  0.00000000E+00
  0.00000000E+00  0.00000000E+00  0.00000000E+00
  0.00000000E+00  0.00000000E+00  0.00000000E+00
  0.00000000E+00  0.00000000E+00  0.00000000E+00
  0.00000000E+00  0.00000000E+00  0.00000000E+00
  0.00000000E+00  0.00000000E+00  0.00000000E+00
