Graphene-Borophene Hollow 2 with lattice
   1.00000000000000     
     4.2868257487329702    2.4749999999999996    0.0000000000000000
    -4.2868257487329702    2.4749999999999996    0.0000000000000000
     0.0000000000000000    0.0000000000000000   15.0000000000000000
   B    C 
     8     8
Direct
  0.6700629679461273 -0.0000081479217137  0.1677425990319961
  0.3299278841321612 -0.0000081479217137  0.1677425990319961
  0.0000081479217137  0.3299360320538748  0.1677425990319961
  0.0000081479217137  0.6700711158678413  0.1677425990319961
  0.3299278841321612  0.3299360320538748  0.1677425990319961
  0.6700629679461273  0.6700711158678413  0.1677425990319961
  0.6666659999999993  0.3333330000000032  0.1661937331601244
  0.3333330000000032  0.6666659999999993  0.1691552503025872
  0.3332900447637424  0.1666450223818783  0.4028232543608866
  0.5000479913203488  0.0000959826406979  0.4029857050796737
  0.3333326666666636  0.6666663333333389  0.4029869396833498
  0.5000479913203488  0.4999510086796535  0.4029857050796737
  0.8333539776181234  0.1666450223818783  0.4028232543608866
  0.9999996666666675  0.9999993333333350  0.4025816043402729
  0.8333539776181234  0.6667089552362604  0.4028232543608866
 -0.0000969826406952  0.4999510086796535  0.4029857050796736
 
  0.00000000E+00  0.00000000E+00  0.00000000E+00
  0.00000000E+00  0.00000000E+00  0.00000000E+00
  0.00000000E+00  0.00000000E+00  0.00000000E+00
  0.00000000E+00  0.00000000E+00  0.00000000E+00
  0.00000000E+00  0.00000000E+00  0.00000000E+00
  0.00000000E+00  0.00000000E+00  0.00000000E+00
  0.00000000E+00  0.00000000E+00  0.00000000E+00
  0.00000000E+00  0.00000000E+00  0.00000000E+00
  0.00000000E+00  0.00000000E+00  0.00000000E+00
  0.00000000E+00  0.00000000E+00  0.00000000E+00
  0.00000000E+00  0.00000000E+00  0.00000000E+00
  0.00000000E+00  0.00000000E+00  0.00000000E+00
  0.00000000E+00  0.00000000E+00  0.00000000E+00
  0.00000000E+00  0.00000000E+00  0.00000000E+00
  0.00000000E+00  0.00000000E+00  0.00000000E+00
  0.00000000E+00  0.00000000E+00  0.00000000E+00
