Graphene-B4C3 Top with lattice parameter
   1.00000000000000     
     4.1829027002788370    2.4149999999999991    0.0000000000000000
    -4.1829027002788370    2.4149999999999991    0.0000000000000000
     0.0000000000000000    0.0000000000000000   15.0000000000000000
   B    C 
     4    11
Direct
  0.0040376314359845  0.0026845590073949  0.1025020034610288
  0.3592065933601314  0.0029466700910057  0.1003788805307798
  0.0037692678552580  0.3575896272662969  0.1003794781006108
  0.6491307539460567  0.6475159912929469  0.1003764853771596
  0.3279010924518877  0.3262832087321641  0.1005548946063677
  0.6804385022412026  0.0029488546220033  0.1005560848409618
  0.0037706411037864  0.6788218913674167  0.1005535689689799
  0.0001524678849054  0.5000741899346975  0.3347798880460262
  0.1667991862326348  0.3334620416770203  0.3348173904333116
  0.0001300445085817  0.0000794619209582  0.3347395612838789
  0.1668419995986723  0.8334115966944474  0.3348213283616012
  0.5001383111971248  0.5001111935935665  0.3347826734863746
  0.6667962520901295  0.3334143041086282  0.3346746584132774
  0.5000999042923644  0.0000573605280491  0.3347783040544802
  0.6667480184679718  0.8333663824967286  0.3348174667018438
 
  0.00000000E+00  0.00000000E+00  0.00000000E+00
  0.00000000E+00  0.00000000E+00  0.00000000E+00
  0.00000000E+00  0.00000000E+00  0.00000000E+00
  0.00000000E+00  0.00000000E+00  0.00000000E+00
  0.00000000E+00  0.00000000E+00  0.00000000E+00
  0.00000000E+00  0.00000000E+00  0.00000000E+00
  0.00000000E+00  0.00000000E+00  0.00000000E+00
  0.00000000E+00  0.00000000E+00  0.00000000E+00
  0.00000000E+00  0.00000000E+00  0.00000000E+00
  0.00000000E+00  0.00000000E+00  0.00000000E+00
  0.00000000E+00  0.00000000E+00  0.00000000E+00
  0.00000000E+00  0.00000000E+00  0.00000000E+00
  0.00000000E+00  0.00000000E+00  0.00000000E+00
  0.00000000E+00  0.00000000E+00  0.00000000E+00
  0.00000000E+00  0.00000000E+00  0.00000000E+00
