BC3 with lattice parameter 5.169        
   1.00000000000000     
     4.4764850000000003    2.5844999999999998    0.0000000000000000
    -4.4764850000000003    2.5844999999999998    0.0000000000000000
     0.0000000000000000    0.0000000000000000   15.0000000000000000
   B    C 
     2     6
Direct
  0.3383342146387732  0.6691650846199603  0.2500000000000000
  0.6716663074455594  0.3358318904522888  0.2500000000000000
  0.1637461528903066  0.3199998877059536  0.2500000000000000
  0.3224998957773174  0.1612503007827430  0.2500000000000000
  0.1637542806961565  0.8437488484490615  0.2500000000000000
  0.8462441833913047  0.1612509118466851  0.2500000000000000
  0.6874996040845612  0.8437500830845801  0.2500000000000000
  0.8462513610760235  0.6849989930587268  0.2500000000000000
 
  0.00000000E+00  0.00000000E+00  0.00000000E+00
  0.00000000E+00  0.00000000E+00  0.00000000E+00
  0.00000000E+00  0.00000000E+00  0.00000000E+00
  0.00000000E+00  0.00000000E+00  0.00000000E+00
  0.00000000E+00  0.00000000E+00  0.00000000E+00
  0.00000000E+00  0.00000000E+00  0.00000000E+00
  0.00000000E+00  0.00000000E+00  0.00000000E+00
  0.00000000E+00  0.00000000E+00  0.00000000E+00
