Graphene-Borophene Bridge with lattice p
   1.00000000000000     
     4.3119404854427197    2.4895000000000000    0.0000000000000000
    -4.3119404854427197    2.4895000000000000    0.0000000000000000
     0.0000000000000000    0.0000000000000000   15.0000000000000000
   B    C 
     8     8
Direct
  0.6704479953129622 -0.0019328712971524  0.1670556909613634
  0.3331809672591255 -0.0018508044929171  0.1668131201391062
  0.0019328712971525  0.3295510046870399  0.1670556909613634
  0.0018508044929171  0.6668180327408764  0.1668131201391062
  0.3330268644882785  0.3295204324129299  0.1660422891861589
  0.6704785675870728  0.6669721355117237  0.1660422891861589
  0.6682223685604451  0.3317766314395574  0.1549224872460764
  0.3348726881097920  0.6651263118902109  0.1795609769746782
  0.2482538266031676  0.2517471627434592  0.4022542620663931
  0.4149170024037157  0.0850968297602351  0.4022896616758870
  0.2482473948991040  0.7517516051008982  0.4023458627927878
  0.4149572595580797  0.5850417404419224  0.4023770235612448
  0.7482267691680626  0.2517722308319393  0.4022665056898251
  0.9148902794305158  0.0851087205694868  0.4021504290109423
  0.7482518372565435  0.7517451733968348  0.4022542620663931
  0.9149021702397675  0.5850819975962868  0.4022896616758870
 
  0.00000000E+00  0.00000000E+00  0.00000000E+00
  0.00000000E+00  0.00000000E+00  0.00000000E+00
  0.00000000E+00  0.00000000E+00  0.00000000E+00
  0.00000000E+00  0.00000000E+00  0.00000000E+00
  0.00000000E+00  0.00000000E+00  0.00000000E+00
  0.00000000E+00  0.00000000E+00  0.00000000E+00
  0.00000000E+00  0.00000000E+00  0.00000000E+00
  0.00000000E+00  0.00000000E+00  0.00000000E+00
  0.00000000E+00  0.00000000E+00  0.00000000E+00
  0.00000000E+00  0.00000000E+00  0.00000000E+00
  0.00000000E+00  0.00000000E+00  0.00000000E+00
  0.00000000E+00  0.00000000E+00  0.00000000E+00
  0.00000000E+00  0.00000000E+00  0.00000000E+00
  0.00000000E+00  0.00000000E+00  0.00000000E+00
  0.00000000E+00  0.00000000E+00  0.00000000E+00
  0.00000000E+00  0.00000000E+00  0.00000000E+00
