BC3 with lattice parameter 5.169        
   1.00000000000000     
     4.4764850000000003    2.5844999999999998    0.0000000000000000
    -4.4764850000000003    2.5844999999999998    0.0000000000000000
     0.0000000000000000    0.0000000000000000   15.0000000000000000
   B    C 
     2     6
Direct
  0.3383342423667446  0.6691651081454020  0.2500000000000000
  0.6716662879260458  0.3358318649159065  0.2500000000000000
  0.1637457847925359  0.3199991976672338  0.2500000000000000
  0.3224992752998289  0.1612501248838453  0.2500000000000000
  0.1637540152171847  0.8437492123037590  0.2500000000000000
  0.8462444341466628  0.1612505536636337  0.2500000000000000
  0.6875002494530492  0.8437502827910979  0.2500000000000000
  0.8462517107979503  0.6849996556291209  0.2500000000000000
 
  0.00000000E+00  0.00000000E+00  0.00000000E+00
  0.00000000E+00  0.00000000E+00  0.00000000E+00
  0.00000000E+00  0.00000000E+00  0.00000000E+00
  0.00000000E+00  0.00000000E+00  0.00000000E+00
  0.00000000E+00  0.00000000E+00  0.00000000E+00
  0.00000000E+00  0.00000000E+00  0.00000000E+00
  0.00000000E+00  0.00000000E+00  0.00000000E+00
  0.00000000E+00  0.00000000E+00  0.00000000E+00
