Graphene-BC3 Hollow with lattice paramet
   1.00000000000000     
     4.3682321366887082    2.5219999999999998    0.0000000000000000
    -4.3682321366887082    2.5219999999999998    0.0000000000000000
     0.0000000000000000    0.0000000000000000   15.0000000000000000
   B    C 
     2    14
Direct
  0.3382962625105893  0.6691460583027715  0.1136146293023998
  0.6716330386518703  0.3358139610506697  0.1132741181469694
  0.1645633231161327  0.3216798143040386  0.1132445374040566
  0.3240836735580711  0.1620397555749389  0.1132544073128637
  0.1645625840052712  0.8428793375603956  0.1132422195600118
  0.8453997962559221  0.1620378739062958  0.1132444191750960
  0.6857580005453074  0.8428774029721590  0.1132330313883151
  0.8453995128234244  0.6833578578167685  0.1132420008014390
  0.3333894247654757  0.1666959532032412  0.3379639928866479
  0.5000819158299084  0.0001136964897763  0.3379335508417366
  0.3333669255802132  0.6666846876917634  0.3376285786569376
  0.5000819291193728  0.4999717442362066  0.3379335096227401
  0.8333610150073397  0.1666971460899419  0.3379587987172812
  0.0000398508610425  0.0000216943580692  0.3379393693258922
  0.8333610506013636  0.6666664010426538  0.3379587750429142
 -0.0000529698979709  0.4999752820670048  0.3379340618146992
 
  0.00000000E+00  0.00000000E+00  0.00000000E+00
  0.00000000E+00  0.00000000E+00  0.00000000E+00
  0.00000000E+00  0.00000000E+00  0.00000000E+00
  0.00000000E+00  0.00000000E+00  0.00000000E+00
  0.00000000E+00  0.00000000E+00  0.00000000E+00
  0.00000000E+00  0.00000000E+00  0.00000000E+00
  0.00000000E+00  0.00000000E+00  0.00000000E+00
  0.00000000E+00  0.00000000E+00  0.00000000E+00
  0.00000000E+00  0.00000000E+00  0.00000000E+00
  0.00000000E+00  0.00000000E+00  0.00000000E+00
  0.00000000E+00  0.00000000E+00  0.00000000E+00
  0.00000000E+00  0.00000000E+00  0.00000000E+00
  0.00000000E+00  0.00000000E+00  0.00000000E+00
  0.00000000E+00  0.00000000E+00  0.00000000E+00
  0.00000000E+00  0.00000000E+00  0.00000000E+00
  0.00000000E+00  0.00000000E+00  0.00000000E+00
