Graphene-Borophene Top with lattice para
   1.00000000000000     
     4.3093424092313661    2.4880000000000000    0.0000000000000000
    -4.3093424092313661    2.4880000000000000    0.0000000000000000
     0.0000000000000000    0.0000000000000000   15.0000000000000000
   B    C 
     8     8
Direct
  0.6685678640030134  0.0000352826983244  0.1673671464376573
  0.3314664186953137  0.0000352826983244  0.1673671464376573
 -0.0000352826983244  0.3314311359969892  0.1673671464376573
 -0.0000352826983244  0.6685325813046888  0.1673671464376573
  0.3314664186953136  0.3314311359969892  0.1673671464376573
  0.6685678640030134  0.6685325813046888  0.1673671464376573
  0.6666659999999993  0.3333330000000032  0.1541832003436223
  0.3333330000000032  0.6666659999999993  0.1803425440698542
  0.1666483392687377  0.3332976785374799  0.4004358878924249
  0.3333290903346796  0.1666640451673375  0.4003412437308287
  0.1666483392687377  0.8333506607312650  0.4004358878924248
  0.3333330000000032  0.6666659999999993  0.4004822180814003
  0.6666659999999993  0.3333330000000032  0.4003244306761090
  0.8333349548326650  0.1666640451673375  0.4003412437308287
  0.6667013214625220  0.8333506607312650  0.4004358878924248
  0.8333349548326650  0.6666699096653232  0.4003412437308287
 
  0.00000000E+00  0.00000000E+00  0.00000000E+00
  0.00000000E+00  0.00000000E+00  0.00000000E+00
  0.00000000E+00  0.00000000E+00  0.00000000E+00
  0.00000000E+00  0.00000000E+00  0.00000000E+00
  0.00000000E+00  0.00000000E+00  0.00000000E+00
  0.00000000E+00  0.00000000E+00  0.00000000E+00
  0.00000000E+00  0.00000000E+00  0.00000000E+00
  0.00000000E+00  0.00000000E+00  0.00000000E+00
  0.00000000E+00  0.00000000E+00  0.00000000E+00
  0.00000000E+00  0.00000000E+00  0.00000000E+00
  0.00000000E+00  0.00000000E+00  0.00000000E+00
  0.00000000E+00  0.00000000E+00  0.00000000E+00
  0.00000000E+00  0.00000000E+00  0.00000000E+00
  0.00000000E+00  0.00000000E+00  0.00000000E+00
  0.00000000E+00  0.00000000E+00  0.00000000E+00
  0.00000000E+00  0.00000000E+00  0.00000000E+00
