Graphene-Borophene Top with lattice para
   1.00000000000000     
     4.3093424092313661    2.4880000000000000    0.0000000000000000
    -4.3093424092313661    2.4880000000000000    0.0000000000000000
     0.0000000000000000    0.0000000000000000   15.0000000000000000
   B    C 
     8     8
Direct
  0.6685428325926170  0.0000644021477335  0.1671238934098008
  0.3315205695551187  0.0000644021477335  0.1671238934098008
 -0.0000644021477335  0.3314561674073853  0.1671238934098008
 -0.0000644021477335  0.6684784304448841  0.1671238934098008
  0.3315205695551186  0.3314561674073853  0.1671238934098008
  0.6685428325926170  0.6684784304448841  0.1671238934098008
  0.6666659999999993  0.3333330000000032  0.1545018431405739
  0.3333330000000032  0.6666659999999993  0.1801000835138419
  0.1666474312934285  0.3332958625868617  0.4006133493781603
  0.3333260293481028  0.1666625146740491  0.4005030659214608
  0.1666474312934286  0.8333515687065743  0.4006133493781602
  0.3333330000000032  0.6666659999999993  0.4007004005846735
  0.6666659999999993  0.3333330000000032  0.4004717330699329
  0.8333364853259532  0.1666625146740491  0.4005030659214608
  0.6667031374131404  0.8333515687065743  0.4006133493781602
  0.8333364853259532  0.6666729706519002  0.4005030659214608
 
  0.00000000E+00  0.00000000E+00  0.00000000E+00
  0.00000000E+00  0.00000000E+00  0.00000000E+00
  0.00000000E+00  0.00000000E+00  0.00000000E+00
  0.00000000E+00  0.00000000E+00  0.00000000E+00
  0.00000000E+00  0.00000000E+00  0.00000000E+00
  0.00000000E+00  0.00000000E+00  0.00000000E+00
  0.00000000E+00  0.00000000E+00  0.00000000E+00
  0.00000000E+00  0.00000000E+00  0.00000000E+00
  0.00000000E+00  0.00000000E+00  0.00000000E+00
  0.00000000E+00  0.00000000E+00  0.00000000E+00
  0.00000000E+00  0.00000000E+00  0.00000000E+00
  0.00000000E+00  0.00000000E+00  0.00000000E+00
  0.00000000E+00  0.00000000E+00  0.00000000E+00
  0.00000000E+00  0.00000000E+00  0.00000000E+00
  0.00000000E+00  0.00000000E+00  0.00000000E+00
  0.00000000E+00  0.00000000E+00  0.00000000E+00
