Graphene-Borophene Top with lattice para
   1.00000000000000     
     4.3093424092313661    2.4880000000000000    0.0000000000000000
    -4.3093424092313661    2.4880000000000000    0.0000000000000000
     0.0000000000000000    0.0000000000000000   15.0000000000000000
   B    C 
     8     8
Direct
  0.6695814244689934 -0.0001883837543473  0.1668040459097432
  0.3302291917766619 -0.0001883837543473  0.1668040459097432
  0.0001883837543473  0.3304175755310090  0.1668040459097432
  0.0001883837543473  0.6697698082233406  0.1668040459097432
  0.3302291917766618  0.3304175755310090  0.1668040459097432
  0.6695814244689934  0.6697698082233406  0.1668040459097432
  0.6666659999999993  0.3333330000000032  0.1623860616692634
  0.3333330000000032  0.6666659999999993  0.1833810543248277
  0.1695535978706790  0.3391081957413626  0.3993731752532717
  0.3389520950372913  0.1694755475186434  0.3994175346896995
  0.1695535978706790  0.8304454021293235  0.3993731752532716
  0.3333330000000032  0.6666659999999993  0.3993794053396610
  0.6666659999999993  0.3333330000000032  0.3995237400455668
  0.8305234524813591  0.1694755475186434  0.3994175346896995
  0.6608908042586398  0.8304454021293235  0.3993731752532716
  0.8305234524813591  0.6610469049627113  0.3994175346896995
 
  0.00000000E+00  0.00000000E+00  0.00000000E+00
  0.00000000E+00  0.00000000E+00  0.00000000E+00
  0.00000000E+00  0.00000000E+00  0.00000000E+00
  0.00000000E+00  0.00000000E+00  0.00000000E+00
  0.00000000E+00  0.00000000E+00  0.00000000E+00
  0.00000000E+00  0.00000000E+00  0.00000000E+00
  0.00000000E+00  0.00000000E+00  0.00000000E+00
  0.00000000E+00  0.00000000E+00  0.00000000E+00
  0.00000000E+00  0.00000000E+00  0.00000000E+00
  0.00000000E+00  0.00000000E+00  0.00000000E+00
  0.00000000E+00  0.00000000E+00  0.00000000E+00
  0.00000000E+00  0.00000000E+00  0.00000000E+00
  0.00000000E+00  0.00000000E+00  0.00000000E+00
  0.00000000E+00  0.00000000E+00  0.00000000E+00
  0.00000000E+00  0.00000000E+00  0.00000000E+00
  0.00000000E+00  0.00000000E+00  0.00000000E+00
