Graphene-Borophene Bridge with lattice p
   1.00000000000000     
     4.3206007394805637    2.4944999999999999    0.0000000000000000
    -4.3206007394805637    2.4944999999999999    0.0000000000000000
     0.0000000000000000    0.0000000000000000   15.0000000000000000
   B    C 
     8     8
Direct
  0.6738261648383587 -0.0048198564071990  0.1668461142597472
  0.3352898639184543 -0.0048951696295074  0.1664846270606321
  0.0048198564071990  0.3261728351616438  0.1668461142597472
  0.0048951696295074  0.6647091360815481  0.1664846270606321
  0.3353645354090299  0.3258687355405048  0.1662914151125865
  0.6741302644594973  0.6646344645909730  0.1662914151125865
  0.6710309573121382  0.3289680426878648  0.1595635764510203
  0.3380424419664222  0.6619565580335793  0.1745116602343942
  0.2452617221084258  0.2545692545810714  0.4023304429254572
  0.4118957938775976  0.0880805908365205  0.4023848114642270
  0.2454391509584733  0.7545598490415292  0.4024581609012919
  0.4120717346488776  0.5879272653511253  0.4025235457813903
  0.7453673912197480  0.2546316087802543  0.4024191937054792
  0.9118764653305608  0.0881225346694414  0.4023823746144965
  0.7454297454189313  0.7547372778915763  0.4023304429254572
  0.9119184091634820  0.5881032061224052  0.4023848114642270
 
  0.00000000E+00  0.00000000E+00  0.00000000E+00
  0.00000000E+00  0.00000000E+00  0.00000000E+00
  0.00000000E+00  0.00000000E+00  0.00000000E+00
  0.00000000E+00  0.00000000E+00  0.00000000E+00
  0.00000000E+00  0.00000000E+00  0.00000000E+00
  0.00000000E+00  0.00000000E+00  0.00000000E+00
  0.00000000E+00  0.00000000E+00  0.00000000E+00
  0.00000000E+00  0.00000000E+00  0.00000000E+00
  0.00000000E+00  0.00000000E+00  0.00000000E+00
  0.00000000E+00  0.00000000E+00  0.00000000E+00
  0.00000000E+00  0.00000000E+00  0.00000000E+00
  0.00000000E+00  0.00000000E+00  0.00000000E+00
  0.00000000E+00  0.00000000E+00  0.00000000E+00
  0.00000000E+00  0.00000000E+00  0.00000000E+00
  0.00000000E+00  0.00000000E+00  0.00000000E+00
  0.00000000E+00  0.00000000E+00  0.00000000E+00
