Graphene-B4C3 Hollow 1 with lattice para
   1.00000000000000     
     4.2149456402188630    2.4335000000000000    0.0000000000000000
    -4.2149456402188630    2.4335000000000000    0.0000000000000000
     0.0000000000000000    0.0000000000000000   15.0000000000000000
   B    C 
     4    11
Direct
  0.0289561758151876 -0.0188752767418963  0.1046398619527342
  0.3843953760676615 -0.0189765142434458  0.1008731267478272
  0.0292975092774533  0.3363493910559748  0.1009953039451438
  0.6737389771834505  0.6249965866388205  0.1009255875237536
  0.3522251741767009  0.3040604797750387  0.1011295795907948
  0.7055570668165507 -0.0195951655199012  0.1012070876110195
  0.0284172030701649  0.6573141502949815  0.1011620692815216
  0.0894180957977290  0.4081732968482148  0.3376159057088838
  0.2560950325348637  0.2415577416204336  0.3376081847347592
  0.0893571475858719  0.9080565130433319  0.3375246757415808
  0.2563281609817977  0.7415418780859335  0.3376065302999442
  0.5896438751305528  0.4081326411048778  0.3376029277537314
  0.7559792697719691  0.2414331888591098  0.3376230223809630
  0.5894256227014856  0.9081351515450227  0.3377156361549197
  0.7560148686441104  0.7415743820779711  0.3375498339057445
 
  0.00000000E+00  0.00000000E+00  0.00000000E+00
  0.00000000E+00  0.00000000E+00  0.00000000E+00
  0.00000000E+00  0.00000000E+00  0.00000000E+00
  0.00000000E+00  0.00000000E+00  0.00000000E+00
  0.00000000E+00  0.00000000E+00  0.00000000E+00
  0.00000000E+00  0.00000000E+00  0.00000000E+00
  0.00000000E+00  0.00000000E+00  0.00000000E+00
  0.00000000E+00  0.00000000E+00  0.00000000E+00
  0.00000000E+00  0.00000000E+00  0.00000000E+00
  0.00000000E+00  0.00000000E+00  0.00000000E+00
  0.00000000E+00  0.00000000E+00  0.00000000E+00
  0.00000000E+00  0.00000000E+00  0.00000000E+00
  0.00000000E+00  0.00000000E+00  0.00000000E+00
  0.00000000E+00  0.00000000E+00  0.00000000E+00
  0.00000000E+00  0.00000000E+00  0.00000000E+00
