Graphene-Borophene Top with lattice para
   1.00000000000000     
     4.3561077810357238    2.5149999999999988    0.0000000000000000
    -4.3561077810357238    2.5149999999999988    0.0000000000000000
     0.0000000000000000    0.0000000000000000   15.0000000000000000
   B    C 
     8     8
Direct
  0.6691984350667479  0.0000852891696273  0.1560293964110230
  0.3308858541028818  0.0000852891696273  0.1560293964110230
 -0.0000852891696273  0.3308005649332544  0.1560293964110230
 -0.0000852891696273  0.6691131458971210  0.1560293964110230
  0.3308858541028817  0.3308005649332544  0.1560293964110230
  0.6691984350667479  0.6691131458971210  0.1560293964110230
  0.6666659999999993  0.3333330000000032  0.1769637461637834
  0.3333330000000032  0.6666659999999993  0.1499069750659572
  0.1689179844661823  0.3378369689323693  0.4098262197234339
  0.3377044790459794  0.1688517395229874  0.4098631681565973
  0.1689179844661823  0.8310810155338203  0.4098262197234339
  0.3333330000000032  0.6666659999999993  0.4098182806998737
  0.6666659999999993  0.3333330000000032  0.4099331226308468
  0.8311472604770151  0.1688517395229874  0.4098631681565973
  0.6621620310676334  0.8310810155338203  0.4098262197234339
  0.8311472604770151  0.6622945209540232  0.4098631681565973
 
  0.00000000E+00  0.00000000E+00  0.00000000E+00
  0.00000000E+00  0.00000000E+00  0.00000000E+00
  0.00000000E+00  0.00000000E+00  0.00000000E+00
  0.00000000E+00  0.00000000E+00  0.00000000E+00
  0.00000000E+00  0.00000000E+00  0.00000000E+00
  0.00000000E+00  0.00000000E+00  0.00000000E+00
  0.00000000E+00  0.00000000E+00  0.00000000E+00
  0.00000000E+00  0.00000000E+00  0.00000000E+00
  0.00000000E+00  0.00000000E+00  0.00000000E+00
  0.00000000E+00  0.00000000E+00  0.00000000E+00
  0.00000000E+00  0.00000000E+00  0.00000000E+00
  0.00000000E+00  0.00000000E+00  0.00000000E+00
  0.00000000E+00  0.00000000E+00  0.00000000E+00
  0.00000000E+00  0.00000000E+00  0.00000000E+00
  0.00000000E+00  0.00000000E+00  0.00000000E+00
  0.00000000E+00  0.00000000E+00  0.00000000E+00
