Graphene-Borophene Top with lattice para
   1.00000000000000     
     4.3561086470611299    2.5150005000000002    0.0000000000000000
    -4.3561086470611299    2.5150005000000002    0.0000000000000000
     0.0000000000000000    0.0000000000000000   15.0000000000000000
   B    C 
     8     8
Direct
  0.6691911975006045 -0.0000217250085664  0.1213583560269547
  0.3307860774908315 -0.0000217250085664  0.1213583560269547
  0.0000217250085664  0.3308078024993980  0.1213583560269547
  0.0000217250085664  0.6692129225091710  0.1213583560269547
  0.3307860774908315  0.3308078024993980  0.1213583560269547
  0.6691911975006045  0.6692129225091710  0.1213583560269547
  0.6666659999999993  0.3333330000000032  0.1289094051725764
  0.3333330000000032  0.6666659999999993  0.1195355542935498
  0.1681365670851596  0.3362741341703239  0.4456481356555393
  0.3361826988891541  0.1680908494445748  0.4456631342792637
  0.1681365670851596  0.8318624329148430  0.4456481356555393
  0.3333330000000032  0.6666659999999993  0.4456455122626389
  0.6666659999999993  0.3333330000000032  0.4456922489717895
  0.8319081505554278  0.1680908494445748  0.4456631342792637
  0.6637248658296786  0.8318624329148430  0.4456481356555393
  0.8319081505554278  0.6638163011108486  0.4456631342792637
 
  0.00000000E+00  0.00000000E+00  0.00000000E+00
  0.00000000E+00  0.00000000E+00  0.00000000E+00
  0.00000000E+00  0.00000000E+00  0.00000000E+00
  0.00000000E+00  0.00000000E+00  0.00000000E+00
  0.00000000E+00  0.00000000E+00  0.00000000E+00
  0.00000000E+00  0.00000000E+00  0.00000000E+00
  0.00000000E+00  0.00000000E+00  0.00000000E+00
  0.00000000E+00  0.00000000E+00  0.00000000E+00
  0.00000000E+00  0.00000000E+00  0.00000000E+00
  0.00000000E+00  0.00000000E+00  0.00000000E+00
  0.00000000E+00  0.00000000E+00  0.00000000E+00
  0.00000000E+00  0.00000000E+00  0.00000000E+00
  0.00000000E+00  0.00000000E+00  0.00000000E+00
  0.00000000E+00  0.00000000E+00  0.00000000E+00
  0.00000000E+00  0.00000000E+00  0.00000000E+00
  0.00000000E+00  0.00000000E+00  0.00000000E+00
