Graphene with lattice parameter 2.460
        1.0
        2.130422    1.230000    0.000000
       -2.130422    1.230000    0.000000
        0.000000    0.000000    15.00000
        C
        2
        Direct
        0.333333    0.666666    0.100000
        0.666666    0.333333    0.100000