Graphene-Borophene Bridge with lattice p
   1.00000000000000     
     4.3136725362502881    2.4904999999999999    0.0000000000000000
    -4.3136725362502881    2.4904999999999999    0.0000000000000000
     0.0000000000000000    0.0000000000000000   15.0000000000000000
   B    C 
     8     8
Direct
  0.6740759887965063 -0.0052362709815459  0.1668179920626425
  0.3368474361985952 -0.0053812768023155  0.1673903215597876
  0.0052362709815459  0.3259230112034955  0.1668179920626425
  0.0053812768023155  0.6631515638014074  0.1673903215597876
  0.3366651524300178  0.3259997966977389  0.1658992397761264
  0.6739992033022638  0.6633338475699847  0.1658992397761264
  0.6717522783726161  0.3282467216273870  0.1537859738164123
  0.3384607086668590  0.6615382913331439  0.1788769670422192
  0.2447522714541175  0.2553477051328555  0.4024491576119610
  0.4114574542032822  0.0887386985008976  0.4024979370567988
  0.2446237521634153  0.7553752478365875  0.4024478575199000
  0.4113049787069828  0.5886940212930200  0.4024301126475379
  0.7447417062792901  0.2552572937207120  0.4024904201850658
  0.9114495919426440  0.0885494080573584  0.4023927059876040
  0.7446512948671470  0.7552467285458854  0.4024491576119610
  0.9112603014991049  0.5885415457967207  0.4024979370567988
 
  0.00000000E+00  0.00000000E+00  0.00000000E+00
  0.00000000E+00  0.00000000E+00  0.00000000E+00
  0.00000000E+00  0.00000000E+00  0.00000000E+00
  0.00000000E+00  0.00000000E+00  0.00000000E+00
  0.00000000E+00  0.00000000E+00  0.00000000E+00
  0.00000000E+00  0.00000000E+00  0.00000000E+00
  0.00000000E+00  0.00000000E+00  0.00000000E+00
  0.00000000E+00  0.00000000E+00  0.00000000E+00
  0.00000000E+00  0.00000000E+00  0.00000000E+00
  0.00000000E+00  0.00000000E+00  0.00000000E+00
  0.00000000E+00  0.00000000E+00  0.00000000E+00
  0.00000000E+00  0.00000000E+00  0.00000000E+00
  0.00000000E+00  0.00000000E+00  0.00000000E+00
  0.00000000E+00  0.00000000E+00  0.00000000E+00
  0.00000000E+00  0.00000000E+00  0.00000000E+00
  0.00000000E+00  0.00000000E+00  0.00000000E+00
