Graphene-Borophene Hollow 2 with lattice
   1.00000000000000     
     4.3076103584237977    2.4870000000000001    0.0000000000000000
    -4.3076103584237977    2.4870000000000001    0.0000000000000000
     0.0000000000000000    0.0000000000000000   15.0000000000000000
   B    C 
     8     8
Direct
  0.6695095727185277 -0.0000677373718558  0.1672762630028340
  0.3304216899096195 -0.0000677373718558  0.1672762630028340
  0.0000677373718558  0.3304894272814748  0.1672762630028340
  0.0000677373718558  0.6695773100903836  0.1672762630028340
  0.3304216899096195  0.3304894272814748  0.1672762630028340
  0.6695095727185277  0.6695773100903836  0.1672762630028340
  0.6666659999999993  0.3333330000000032  0.1606450680126653
  0.3333330000000032  0.6666659999999993  0.1746581847556742
  0.3333499851727068  0.1666749925863605  0.4032023794546963
  0.5000077249230973  0.0000154498461946  0.4033077186558282
  0.3333326666666636  0.6666663333333389  0.4032378720254364
  0.5000077249230973  0.4999912750769048  0.4033077186558282
  0.8333240074136419  0.1666749925863605  0.4032023794546964
  0.9999996666666675  0.9999993333333350  0.4030710028576391
  0.8333240074136419  0.6666490148272962  0.4032023794546964
 -0.0000164498461924  0.4999912750769048  0.4033077186558283
 
  0.00000000E+00  0.00000000E+00  0.00000000E+00
  0.00000000E+00  0.00000000E+00  0.00000000E+00
  0.00000000E+00  0.00000000E+00  0.00000000E+00
  0.00000000E+00  0.00000000E+00  0.00000000E+00
  0.00000000E+00  0.00000000E+00  0.00000000E+00
  0.00000000E+00  0.00000000E+00  0.00000000E+00
  0.00000000E+00  0.00000000E+00  0.00000000E+00
  0.00000000E+00  0.00000000E+00  0.00000000E+00
  0.00000000E+00  0.00000000E+00  0.00000000E+00
  0.00000000E+00  0.00000000E+00  0.00000000E+00
  0.00000000E+00  0.00000000E+00  0.00000000E+00
  0.00000000E+00  0.00000000E+00  0.00000000E+00
  0.00000000E+00  0.00000000E+00  0.00000000E+00
  0.00000000E+00  0.00000000E+00  0.00000000E+00
  0.00000000E+00  0.00000000E+00  0.00000000E+00
  0.00000000E+00  0.00000000E+00  0.00000000E+00
