Graphene-Borophene Hollow 1 with lattice
   1.00000000000000     
     4.3344571459411148    2.5024999999999999    0.0000000000000000
    -4.3344571459411148    2.5024999999999999    0.0000000000000000
     0.0000000000000000    0.0000000000000000   15.0000000000000000
   B    C 
     8     8
Direct
  0.6718883686864883 -0.0026896589646806  0.1665689222932774
  0.3333150587726278 -0.0025874598615423  0.1667697970844658
  0.0026896589646806  0.3281106313135145  0.1665689222932774
  0.0025874598615423  0.6666839412273753  0.1667697970844658
  0.3332516612585691  0.3280363758503833  0.1668418387576381
  0.6719626241496192  0.6667473387414332  0.1668418387576381
  0.6691198464229516  0.3308791535770514  0.1637646847889348
  0.3358195264510248  0.6641794735489779  0.1699462921718617
  0.2752078574168923  0.2248081805246875  0.4028225289153231
  0.4418749523375029  0.0581501838370339  0.4028767255961223
  0.2751876047046218  0.7248113952953807  0.4028448584832550
  0.4418830647106906  0.5581159352893116  0.4029004984735013
  0.7751933442017298  0.2248056557982728  0.4028507122566252
  0.9418612253117076  0.0581377746882952  0.4027333285321786
  0.7751908194753150  0.7247911425831104  0.4028225289153231
  0.9418488161629691  0.5581240476624999  0.4028767255961223
 
  0.00000000E+00  0.00000000E+00  0.00000000E+00
  0.00000000E+00  0.00000000E+00  0.00000000E+00
  0.00000000E+00  0.00000000E+00  0.00000000E+00
  0.00000000E+00  0.00000000E+00  0.00000000E+00
  0.00000000E+00  0.00000000E+00  0.00000000E+00
  0.00000000E+00  0.00000000E+00  0.00000000E+00
  0.00000000E+00  0.00000000E+00  0.00000000E+00
  0.00000000E+00  0.00000000E+00  0.00000000E+00
  0.00000000E+00  0.00000000E+00  0.00000000E+00
  0.00000000E+00  0.00000000E+00  0.00000000E+00
  0.00000000E+00  0.00000000E+00  0.00000000E+00
  0.00000000E+00  0.00000000E+00  0.00000000E+00
  0.00000000E+00  0.00000000E+00  0.00000000E+00
  0.00000000E+00  0.00000000E+00  0.00000000E+00
  0.00000000E+00  0.00000000E+00  0.00000000E+00
  0.00000000E+00  0.00000000E+00  0.00000000E+00
