Graphene-Borophene Bridge with lattice p
   1.00000000000000     
     4.3119404854427197    2.4895000000000000    0.0000000000000000
    -4.3119404854427197    2.4895000000000000    0.0000000000000000
     0.0000000000000000    0.0000000000000000   15.0000000000000000
   B    C 
     8     8
Direct
  0.6741214334096089 -0.0052737888694684  0.1673482661366530
  0.3370782269729050 -0.0052339939763945  0.1678071887758258
  0.0052737888694685  0.3258775665903932  0.1673482661366530
  0.0052339939763945  0.6629207730270966  0.1678071887758258
  0.3368400755199741  0.3259576025756563  0.1661030664021465
  0.6740413974243463  0.6631589244800281  0.1661030664021465
  0.6716209110737159  0.3283780889262867  0.1530996568238298
  0.3383719521487735  0.6616270478512294  0.1793265475358981
  0.2446705973934994  0.2553011519742480  0.4022119706272257
  0.4113445906360221  0.0886644789043634  0.4021869977329685
  0.2447010020068487  0.7552979979931536  0.4022580175902337
  0.4113789451243394  0.5886200548756627  0.4023053957402698
  0.7446394013285115  0.2553595986714907  0.4021413407224769
  0.9113109816609003  0.0886880183391022  0.4020873955710243
  0.7446978480257548  0.7553284026065030  0.4022119706272257
  0.9113345210956393  0.5886544093639803  0.4021869977329685
 
  0.00000000E+00  0.00000000E+00  0.00000000E+00
  0.00000000E+00  0.00000000E+00  0.00000000E+00
  0.00000000E+00  0.00000000E+00  0.00000000E+00
  0.00000000E+00  0.00000000E+00  0.00000000E+00
  0.00000000E+00  0.00000000E+00  0.00000000E+00
  0.00000000E+00  0.00000000E+00  0.00000000E+00
  0.00000000E+00  0.00000000E+00  0.00000000E+00
  0.00000000E+00  0.00000000E+00  0.00000000E+00
  0.00000000E+00  0.00000000E+00  0.00000000E+00
  0.00000000E+00  0.00000000E+00  0.00000000E+00
  0.00000000E+00  0.00000000E+00  0.00000000E+00
  0.00000000E+00  0.00000000E+00  0.00000000E+00
  0.00000000E+00  0.00000000E+00  0.00000000E+00
  0.00000000E+00  0.00000000E+00  0.00000000E+00
  0.00000000E+00  0.00000000E+00  0.00000000E+00
  0.00000000E+00  0.00000000E+00  0.00000000E+00
