Graphene-B4C3 Top with lattice parameter
   1.00000000000000     
     4.1136206679760834    2.3750000000000000    0.0000000000000000
    -4.1136206679760834    2.3750000000000000    0.0000000000000000
     0.0000000000000000    0.0000000000000000   15.0000000000000000
   B    C 
     4    11
Direct
  0.0040358982221478  0.0026772611419730  0.1161291467329566
  0.3576553878069957  0.0028477415499282  0.0980727162073498
  0.0038650213196200  0.3561248581720944  0.0980731144199801
  0.6505920380944658  0.6490623045953443  0.0980696804667128
  0.3278950312020120  0.3263413633782383  0.1001637776079165
  0.6803748068876920  0.0028687529939193  0.1001613874473143
  0.0038417247802287  0.6788229115543951  0.1001578246845516
  0.0001460336114460  0.5000865607274383  0.3341009076033734
  0.1668300423916360  0.3335190725768417  0.3341377628085292
  0.0001296190627594  0.0000852078310444  0.3339817863128566
  0.1668600673829709  0.8333850658703229  0.3341415263528975
  0.5001316284628458  0.5001044331341612  0.3341044867933568
  0.6667950981725510  0.3334198626776603  0.3339814420408454
  0.5001126823142238  0.0000691573073141  0.3340997290901712
  0.6666955869550981  0.8333527798226483  0.3341373780978710
 
  0.00000000E+00  0.00000000E+00  0.00000000E+00
  0.00000000E+00  0.00000000E+00  0.00000000E+00
  0.00000000E+00  0.00000000E+00  0.00000000E+00
  0.00000000E+00  0.00000000E+00  0.00000000E+00
  0.00000000E+00  0.00000000E+00  0.00000000E+00
  0.00000000E+00  0.00000000E+00  0.00000000E+00
  0.00000000E+00  0.00000000E+00  0.00000000E+00
  0.00000000E+00  0.00000000E+00  0.00000000E+00
  0.00000000E+00  0.00000000E+00  0.00000000E+00
  0.00000000E+00  0.00000000E+00  0.00000000E+00
  0.00000000E+00  0.00000000E+00  0.00000000E+00
  0.00000000E+00  0.00000000E+00  0.00000000E+00
  0.00000000E+00  0.00000000E+00  0.00000000E+00
  0.00000000E+00  0.00000000E+00  0.00000000E+00
  0.00000000E+00  0.00000000E+00  0.00000000E+00
