Graphene-BC3 Top with lattice parameter 
   1.00000000000000     
     4.3682321366887082    2.5219999999999998    0.0000000000000000
    -4.3682321366887082    2.5219999999999998    0.0000000000000000
     0.0000000000000000    0.0000000000000000   15.0000000000000000
   B    C 
     2    14
Direct
  0.3383347085047672  0.6691672459291835  0.1002357529251343
  0.6716675701605722  0.3358336266669149  0.1002357292513755
  0.1646255116280912  0.3217446993839765  0.0999096550081681
  0.3242479938871528  0.1621241387145363  0.0999086851382593
  0.1646264617449980  0.8428811511252798  0.0999096478612510
  0.8453840038120932  0.1621214727580919  0.0999111524160874
  0.6857658875621222  0.8428820088033182  0.0999117453534562
  0.8453851449374814  0.6832619293226496  0.0999111584563695
  0.1665647568653491  0.3331367509028383  0.3288842543577759
  0.3331341281976090  0.1665668687949030  0.3288853761389122
  0.1665647576040876  0.8334275859495333  0.3288842546295367
  0.3333265159240942  0.6666630638870816  0.3285841848937007
  0.6666599074182950  0.3333297416239452  0.3285841824431843
  0.8334250376974601  0.1665674435573719  0.3288818391227002
  0.6668545804907317  0.8334270792600125  0.3288805426874580
  0.8334250335651145  0.6668571933203727  0.3288818393166511
 
  0.00000000E+00  0.00000000E+00  0.00000000E+00
  0.00000000E+00  0.00000000E+00  0.00000000E+00
  0.00000000E+00  0.00000000E+00  0.00000000E+00
  0.00000000E+00  0.00000000E+00  0.00000000E+00
  0.00000000E+00  0.00000000E+00  0.00000000E+00
  0.00000000E+00  0.00000000E+00  0.00000000E+00
  0.00000000E+00  0.00000000E+00  0.00000000E+00
  0.00000000E+00  0.00000000E+00  0.00000000E+00
  0.00000000E+00  0.00000000E+00  0.00000000E+00
  0.00000000E+00  0.00000000E+00  0.00000000E+00
  0.00000000E+00  0.00000000E+00  0.00000000E+00
  0.00000000E+00  0.00000000E+00  0.00000000E+00
  0.00000000E+00  0.00000000E+00  0.00000000E+00
  0.00000000E+00  0.00000000E+00  0.00000000E+00
  0.00000000E+00  0.00000000E+00  0.00000000E+00
  0.00000000E+00  0.00000000E+00  0.00000000E+00
