Graphene-B4C3 Bridge with lattice parame
   1.00000000000000     
     4.1967591067393899    2.4230000000000000    0.0000000000000000
    -4.1967591067393899    2.4230000000000000    0.0000000000000000
     0.0000000000000000    0.0000000000000000   15.0000000000000000
   B    C 
     4    11
Direct
  0.0482060753684089 -0.0393469119752355  0.1020536101066384
  0.4033910073503957 -0.0390715386755318  0.1009074820630508
  0.0479187405344824  0.3155500655876933  0.1009139740252404
  0.6933034183123711  0.6054673982498457  0.1009087048502903
  0.3719334338132216  0.2840965365346083  0.1009716042242952
  0.7247558345341085 -0.0390748370676605  0.1009715260570797
  0.0479305131093401  0.6369237855567299  0.1009707080562899
  0.0448317762574306  0.4535168653484034  0.3354103664008130
  0.2114828411200069  0.2869077583108553  0.3354531034039516
  0.0448163021926471  0.9535259208438741  0.3353758011643718
  0.2115278240161051  0.7868635250927477  0.3354525619500374
  0.5448272806044198  0.4535546872060023  0.3354179196522398
  0.7114823782964784  0.2868653768630012  0.3353113167287750
  0.5447844897384433  0.9535063239118817  0.3354146681078989
  0.7114354180854630  0.7868157108794821  0.3354459865423423
 
  0.00000000E+00  0.00000000E+00  0.00000000E+00
  0.00000000E+00  0.00000000E+00  0.00000000E+00
  0.00000000E+00  0.00000000E+00  0.00000000E+00
  0.00000000E+00  0.00000000E+00  0.00000000E+00
  0.00000000E+00  0.00000000E+00  0.00000000E+00
  0.00000000E+00  0.00000000E+00  0.00000000E+00
  0.00000000E+00  0.00000000E+00  0.00000000E+00
  0.00000000E+00  0.00000000E+00  0.00000000E+00
  0.00000000E+00  0.00000000E+00  0.00000000E+00
  0.00000000E+00  0.00000000E+00  0.00000000E+00
  0.00000000E+00  0.00000000E+00  0.00000000E+00
  0.00000000E+00  0.00000000E+00  0.00000000E+00
  0.00000000E+00  0.00000000E+00  0.00000000E+00
  0.00000000E+00  0.00000000E+00  0.00000000E+00
  0.00000000E+00  0.00000000E+00  0.00000000E+00
