B4C3 with lattice parameter 4.700       
   1.00000000000000     
     4.0703189999999996    2.3500000000000001    0.0000000000000000
    -4.0703189999999996    2.3500000000000001    0.0000000000000000
     0.0000000000000000    0.0000000000000000   15.0000000000000000
   B    C 
     4     3
Direct
  0.0041540387140219  0.0026916791809168  0.1196525214714628
  0.3571190466579613  0.0028328067161505  0.0976495168621982
  0.0041866879619040  0.3556536981352418  0.0976431655435369
  0.6512481571062537  0.6498811755757031  0.0976709509086940
  0.3280662221237311  0.3266712035774098  0.1003672119284122
  0.6803166950243503  0.0028239537912515  0.1003358805903320
  0.0042071524117748  0.6788834830233271  0.1003267526953752
 
  0.00000000E+00  0.00000000E+00  0.00000000E+00
  0.00000000E+00  0.00000000E+00  0.00000000E+00
  0.00000000E+00  0.00000000E+00  0.00000000E+00
  0.00000000E+00  0.00000000E+00  0.00000000E+00
  0.00000000E+00  0.00000000E+00  0.00000000E+00
  0.00000000E+00  0.00000000E+00  0.00000000E+00
  0.00000000E+00  0.00000000E+00  0.00000000E+00
