k-points 22
0
Gamma
22    22    1
0    0    0