Graphene-BC3 Top with lattice parameter 
   1.00000000000000     
     4.3301270189221919    2.4999999999999996    0.0000000000000000
    -4.3301270189221919    2.4999999999999996    0.0000000000000000
     0.0000000000000000    0.0000000000000000   15.0000000000000000
   B    C 
     2    14
Direct
  0.3384243188188376  0.6692088910816747  0.1003656498661113
  0.6717572995181474  0.3358753819161556  0.1003656639882897
  0.1649876498897981  0.3223366843999591  0.1000174410732307
  0.3248839515577813  0.1624420098105009  0.0999935658605901
  0.1649878737670254  0.8426486084675558  0.1000170982155961
  0.8451973200341478  0.1624386774262438  0.1000643428395216
  0.6853059176571733  0.8426524223941303  0.1000872780818973
  0.8451962885035489  0.6827567375806021  0.1000640349188657
  0.1664846715993156  0.3331096892751514  0.3287539540589730
  0.3330620991512987  0.1665319162958750  0.3287547691737663
  0.1664846646009719  0.8333766823229488  0.3287539519013564
  0.3332385797259084  0.6666201620543912  0.3284534548400103
  0.6665719867840315  0.3332868131630326  0.3284534497819984
  0.8333291515309640  0.1665323215650570  0.3287521227071181
  0.6667510423559070  0.8333763653401296  0.3287511041729260
  0.8333291845051607  0.6667986369066012  0.3287521185197696
 
  0.00000000E+00  0.00000000E+00  0.00000000E+00
  0.00000000E+00  0.00000000E+00  0.00000000E+00
  0.00000000E+00  0.00000000E+00  0.00000000E+00
  0.00000000E+00  0.00000000E+00  0.00000000E+00
  0.00000000E+00  0.00000000E+00  0.00000000E+00
  0.00000000E+00  0.00000000E+00  0.00000000E+00
  0.00000000E+00  0.00000000E+00  0.00000000E+00
  0.00000000E+00  0.00000000E+00  0.00000000E+00
  0.00000000E+00  0.00000000E+00  0.00000000E+00
  0.00000000E+00  0.00000000E+00  0.00000000E+00
  0.00000000E+00  0.00000000E+00  0.00000000E+00
  0.00000000E+00  0.00000000E+00  0.00000000E+00
  0.00000000E+00  0.00000000E+00  0.00000000E+00
  0.00000000E+00  0.00000000E+00  0.00000000E+00
  0.00000000E+00  0.00000000E+00  0.00000000E+00
  0.00000000E+00  0.00000000E+00  0.00000000E+00
