Graphene-B4C3 Hollow 1 with lattice para
   1.00000000000000     
     4.1829027002788370    2.4149999999999991    0.0000000000000000
    -4.1829027002788370    2.4149999999999991    0.0000000000000000
     0.0000000000000000    0.0000000000000000   15.0000000000000000
   B    C 
     4    11
Direct
  0.0146299382681853 -0.0068340280960910  0.0999071448645462
  0.3699898506785563 -0.0066093501960920  0.1019797577247686
  0.0149282317133102  0.3485154648851080  0.1018027357403139
  0.6597213372226899  0.6380673276321932  0.1018567345830243
  0.3384744437570613  0.3171505907037120  0.1015857663483896
  0.6911872807844661 -0.0069580725617662  0.1015078239837389
  0.0148502278168571  0.6695310932207567  0.1015986138415420
  0.1018563903176829  0.3971802612004525  0.3375784325192600
  0.2684298658811707  0.2304954293195562  0.3378854480834487
  0.1018166028477579  0.8972531303126512  0.3375913796886472
  0.2684363878717336  0.7305888231693135  0.3377053463142863
  0.6017602682551841  0.3972126448077379  0.3375105137172562
  0.7684628125647005  0.2305736898596034  0.3377884425978370
  0.6018028649836259  0.8971499283310591  0.3377248465429121
  0.7685030525925679  0.7305615118562734  0.3377563467833494
 
  0.00000000E+00  0.00000000E+00  0.00000000E+00
  0.00000000E+00  0.00000000E+00  0.00000000E+00
  0.00000000E+00  0.00000000E+00  0.00000000E+00
  0.00000000E+00  0.00000000E+00  0.00000000E+00
  0.00000000E+00  0.00000000E+00  0.00000000E+00
  0.00000000E+00  0.00000000E+00  0.00000000E+00
  0.00000000E+00  0.00000000E+00  0.00000000E+00
  0.00000000E+00  0.00000000E+00  0.00000000E+00
  0.00000000E+00  0.00000000E+00  0.00000000E+00
  0.00000000E+00  0.00000000E+00  0.00000000E+00
  0.00000000E+00  0.00000000E+00  0.00000000E+00
  0.00000000E+00  0.00000000E+00  0.00000000E+00
  0.00000000E+00  0.00000000E+00  0.00000000E+00
  0.00000000E+00  0.00000000E+00  0.00000000E+00
  0.00000000E+00  0.00000000E+00  0.00000000E+00
