BC3 with lattice parameter 5.169        
   1.00000000000000     
     4.4764850000000003    2.5844999999999998    0.0000000000000000
    -4.4764850000000003    2.5844999999999998    0.0000000000000000
     0.0000000000000000    0.0000000000000000   15.0000000000000000
   B    C 
     2     6
Direct
  0.3383342601904403  0.6691651036199846  0.2500000000000000
  0.6716662891690887  0.3358318608787063  0.2500000000000000
  0.1637456922092085  0.3199991018667235  0.2500000000000000
  0.3224992066040093  0.1612500590189253  0.2500000000000000
  0.1637539315750554  0.8437492496873660  0.2500000000000000
  0.8462445013269163  0.1612505064959509  0.2500000000000000
  0.6875003186877323  0.8437503571002496  0.2500000000000000
  0.8462518002375515  0.6849997613320933  0.2500000000000000
 
  0.00000000E+00  0.00000000E+00  0.00000000E+00
  0.00000000E+00  0.00000000E+00  0.00000000E+00
  0.00000000E+00  0.00000000E+00  0.00000000E+00
  0.00000000E+00  0.00000000E+00  0.00000000E+00
  0.00000000E+00  0.00000000E+00  0.00000000E+00
  0.00000000E+00  0.00000000E+00  0.00000000E+00
  0.00000000E+00  0.00000000E+00  0.00000000E+00
  0.00000000E+00  0.00000000E+00  0.00000000E+00
