Borophene with lattice parameter 5.051  
   1.00000000000000     
     4.3742939999999999    2.5255000000000001    0.0000000000000000
    -4.3742939999999999    2.5255000000000001    0.0000000000000000
     0.0000000000000000    0.0000000000000000   15.0000000000000000
   B 
     8
Direct
  0.6687629195076817  0.0000000000000000  0.1000000000000014
  0.3312360804923208 -0.0000000000000000  0.1000000000000014
 -0.0000000000000000  0.3312360804923208  0.1000000000000014
  0.0000000000000000  0.6687629195076817  0.1000000000000014
  0.3312360804923208  0.3312360804923208  0.1000000000000014
  0.6687629195076817  0.6687629195076817  0.1000000000000014
  0.6666659999999993  0.3333330000000032  0.1015349782835484
  0.3333330000000032  0.6666659999999993  0.0984650217164544
 
  0.00000000E+00  0.00000000E+00  0.00000000E+00
  0.00000000E+00  0.00000000E+00  0.00000000E+00
  0.00000000E+00  0.00000000E+00  0.00000000E+00
  0.00000000E+00  0.00000000E+00  0.00000000E+00
  0.00000000E+00  0.00000000E+00  0.00000000E+00
  0.00000000E+00  0.00000000E+00  0.00000000E+00
  0.00000000E+00  0.00000000E+00  0.00000000E+00
  0.00000000E+00  0.00000000E+00  0.00000000E+00
