Graphene-BC3 Hollow with lattice paramet
   1.00000000000000     
     4.3665000858811389    2.5209999999999995    0.0000000000000000
    -4.3665000858811389    2.5209999999999995    0.0000000000000000
     0.0000000000000000    0.0000000000000000   15.0000000000000000
   B    C 
     2    14
Direct
  0.3383126674960173  0.6691545523822807  0.1003462205112974
  0.6716502783573889  0.3358244791721944  0.0999847467558113
  0.1646176361042921  0.3217579536021959  0.1000428963379377
  0.3241759066495725  0.1620862431310437  0.1000380249937641
  0.1646140764101463  0.8428550481430896  0.1000429210037461
  0.8453767319002595  0.1620872477230750  0.1000315060955244
  0.6857083290482602  0.8428535423094552  0.1000367400259250
  0.8453744829953067  0.6832906842934995  0.1000314352625115
  0.3333800211643996  0.1666890865545074  0.3255149511885166
  0.5000544647630388  0.0000929770414229  0.3254842125959195
  0.3333568224549545  0.6666774703196967  0.3252202693543992
  0.5000544545860541  0.4999640335075259  0.3254842074277748
  0.8333505192562923  0.1666906420621486  0.3255103112652348
  0.0000167573610584  0.0000096391622691  0.3255032404923844
  0.8333504595306928  0.6666579330712735  0.3255103354385148
  0.9999317252556004  0.4999671341910162  0.3254846479174099
 
  0.00000000E+00  0.00000000E+00  0.00000000E+00
  0.00000000E+00  0.00000000E+00  0.00000000E+00
  0.00000000E+00  0.00000000E+00  0.00000000E+00
  0.00000000E+00  0.00000000E+00  0.00000000E+00
  0.00000000E+00  0.00000000E+00  0.00000000E+00
  0.00000000E+00  0.00000000E+00  0.00000000E+00
  0.00000000E+00  0.00000000E+00  0.00000000E+00
  0.00000000E+00  0.00000000E+00  0.00000000E+00
  0.00000000E+00  0.00000000E+00  0.00000000E+00
  0.00000000E+00  0.00000000E+00  0.00000000E+00
  0.00000000E+00  0.00000000E+00  0.00000000E+00
  0.00000000E+00  0.00000000E+00  0.00000000E+00
  0.00000000E+00  0.00000000E+00  0.00000000E+00
  0.00000000E+00  0.00000000E+00  0.00000000E+00
  0.00000000E+00  0.00000000E+00  0.00000000E+00
  0.00000000E+00  0.00000000E+00  0.00000000E+00
