Graphene-BC3 Hollow with lattice paramet
   1.00000000000000     
     4.3665000858811389    2.5209999999999995    0.0000000000000000
    -4.3665000858811389    2.5209999999999995    0.0000000000000000
     0.0000000000000000    0.0000000000000000   15.0000000000000000
   B    C 
     2    14
Direct
  0.3383126612125958  0.6691545460528761  0.1003462462075546
  0.6716502733108116  0.3358244763494402  0.0999847560304706
  0.1646176236034561  0.3217579426753709  0.1000429270250213
  0.3241759060268988  0.1620862427426823  0.1000380508108082
  0.1646140622514830  0.8428550476364187  0.1000429517151545
  0.8453767218628848  0.1620872482989498  0.1000315296972318
  0.6857083301186120  0.8428535427825264  0.1000367686139295
  0.8453744713525860  0.6832906734081367  0.1000314587991116
  0.3333800348624310  0.1666890924596142  0.3255149279533481
  0.5000544632736091  0.0000929721242020  0.3254841860327475
  0.3333568353772460  0.6666774757878366  0.3252202469085390
  0.5000544531130732  0.4999640394846896  0.3254841808602946
  0.8333505319239116  0.1666906480122665  0.3255102879562073
  0.0000167589026939  0.0000096412145238  0.3255032145250920
  0.8333504721364092  0.6666579377872338  0.3255103121393579
  0.9999317340046321  0.4999671398499263  0.3254846213918032
 
  0.00000000E+00  0.00000000E+00  0.00000000E+00
  0.00000000E+00  0.00000000E+00  0.00000000E+00
  0.00000000E+00  0.00000000E+00  0.00000000E+00
  0.00000000E+00  0.00000000E+00  0.00000000E+00
  0.00000000E+00  0.00000000E+00  0.00000000E+00
  0.00000000E+00  0.00000000E+00  0.00000000E+00
  0.00000000E+00  0.00000000E+00  0.00000000E+00
  0.00000000E+00  0.00000000E+00  0.00000000E+00
  0.00000000E+00  0.00000000E+00  0.00000000E+00
  0.00000000E+00  0.00000000E+00  0.00000000E+00
  0.00000000E+00  0.00000000E+00  0.00000000E+00
  0.00000000E+00  0.00000000E+00  0.00000000E+00
  0.00000000E+00  0.00000000E+00  0.00000000E+00
  0.00000000E+00  0.00000000E+00  0.00000000E+00
  0.00000000E+00  0.00000000E+00  0.00000000E+00
  0.00000000E+00  0.00000000E+00  0.00000000E+00
