Graphene-Borophene Bridge with lattice p
   1.00000000000000     
     4.3301270189221928    2.5000000000000000    0.0000000000000000
    -4.3301270189221928    2.5000000000000000    0.0000000000000000
     0.0000000000000000    0.0000000000000000   15.0000000000000000
   B    C 
     8     8
Direct
  0.6697081617255732 -0.0000844381241351  0.1639287272544934
  0.3305888359599978  0.0000201621383516  0.1640937047982709
  0.0000844381241351  0.3302908382744292  0.1639287272544934
 -0.0000201621383516  0.6694101640400046  0.1640937047982709
  0.3306402543305761  0.3305925383681962  0.1641217003459539
  0.6694064616318061  0.6693587456694264  0.1641217003459539
  0.6666365419976326  0.3333624580023699  0.1729515466926081
  0.3332790711396117  0.6667199288603909  0.1689994682071247
  0.2529546680846759  0.2531373416395978  0.4037407768401691
  0.4186918010383476  0.0823833676776849  0.4028207373640442
  0.2503953707209806  0.7496036292790219  0.4022065426747943
  0.4159179940249197  0.5840810059750828  0.4032046188727093
  0.7481321975789849  0.2518668024210178  0.4034493911277289
  0.9157667417650910  0.0842322582349117  0.4043104725525438
  0.7468616583604046  0.7470443319153266  0.4037407768401691
  0.9176156323223176  0.5813071989616552  0.4028207373640442
 
  0.00000000E+00  0.00000000E+00  0.00000000E+00
  0.00000000E+00  0.00000000E+00  0.00000000E+00
  0.00000000E+00  0.00000000E+00  0.00000000E+00
  0.00000000E+00  0.00000000E+00  0.00000000E+00
  0.00000000E+00  0.00000000E+00  0.00000000E+00
  0.00000000E+00  0.00000000E+00  0.00000000E+00
  0.00000000E+00  0.00000000E+00  0.00000000E+00
  0.00000000E+00  0.00000000E+00  0.00000000E+00
  0.00000000E+00  0.00000000E+00  0.00000000E+00
  0.00000000E+00  0.00000000E+00  0.00000000E+00
  0.00000000E+00  0.00000000E+00  0.00000000E+00
  0.00000000E+00  0.00000000E+00  0.00000000E+00
  0.00000000E+00  0.00000000E+00  0.00000000E+00
  0.00000000E+00  0.00000000E+00  0.00000000E+00
  0.00000000E+00  0.00000000E+00  0.00000000E+00
  0.00000000E+00  0.00000000E+00  0.00000000E+00
