Graphene-B4C3 Hollow 1 with lattice para
   1.00000000000000     
     4.1984911575469575    2.4239999999999995    0.0000000000000000
    -4.1984911575469575    2.4239999999999995    0.0000000000000000
     0.0000000000000000    0.0000000000000000   15.0000000000000000
   B    C 
     4    11
Direct
  0.0359726888631979 -0.0254400018015586  0.1030252140558459
  0.3911045522665459 -0.0250161656187288  0.1000072117574428
  0.0358081684128490  0.3295649598423245  0.1003040184832315
  0.6806993688794916  0.6194296589736891  0.1002460869156500
  0.3592962863552025  0.2983927228110745  0.1003728226062283
  0.7120523417194921 -0.0256440037125892  0.1007705610154673
  0.0358323400147198  0.6508675511864891  0.1004348439650248
  0.0834467888093863  0.4135407388886780  0.3382632708644899
  0.2500880985450820  0.2468832174369829  0.3384162331404703
  0.0834934741696004  0.9135992733393326  0.3383910150152573
  0.2501835432334749  0.7469306618812097  0.3383498185573769
  0.5834410347390070  0.4135311628370384  0.3383656330043189
  0.7500777990348134  0.2469246184148990  0.3381832481334437
  0.5833518783174866  0.9134586557709546  0.3382976953559099
  0.7500011921951998  0.7468553941946731  0.3383516604631629
 
  0.00000000E+00  0.00000000E+00  0.00000000E+00
  0.00000000E+00  0.00000000E+00  0.00000000E+00
  0.00000000E+00  0.00000000E+00  0.00000000E+00
  0.00000000E+00  0.00000000E+00  0.00000000E+00
  0.00000000E+00  0.00000000E+00  0.00000000E+00
  0.00000000E+00  0.00000000E+00  0.00000000E+00
  0.00000000E+00  0.00000000E+00  0.00000000E+00
  0.00000000E+00  0.00000000E+00  0.00000000E+00
  0.00000000E+00  0.00000000E+00  0.00000000E+00
  0.00000000E+00  0.00000000E+00  0.00000000E+00
  0.00000000E+00  0.00000000E+00  0.00000000E+00
  0.00000000E+00  0.00000000E+00  0.00000000E+00
  0.00000000E+00  0.00000000E+00  0.00000000E+00
  0.00000000E+00  0.00000000E+00  0.00000000E+00
  0.00000000E+00  0.00000000E+00  0.00000000E+00
