Borophene with lattice parameter 5.051  
   1.00000000000000     
     4.3634117622877246    2.5192171357712354    0.0000000000000000
    -4.3634117622877246    2.5192171357712354    0.0000000000000000
     0.0000000000000000    0.0000000000000000   15.0000000000000000
  B/a32ced30f5ae
               8
Direct
  0.6681604928852383  0.0000000000004298  0.1000000000000014
  0.3318385071147644 -0.0000000000004298  0.1000000000000014
 -0.0000000000004298  0.3318385071147644  0.1000000000000014
  0.0000000000004298  0.6681604928852383  0.1000000000000014
  0.3318385071143345  0.3318385071143345  0.1000000000000014
  0.6681604928856680  0.6681604928856680  0.1000000000000014
  0.6666659999999993  0.3333330000000032  0.0999559482185326
  0.3333330000000032  0.6666659999999993  0.1000440517814703
 
  0.00000000E+00  0.00000000E+00  0.00000000E+00
  0.00000000E+00  0.00000000E+00  0.00000000E+00
  0.00000000E+00  0.00000000E+00  0.00000000E+00
  0.00000000E+00  0.00000000E+00  0.00000000E+00
  0.00000000E+00  0.00000000E+00  0.00000000E+00
  0.00000000E+00  0.00000000E+00  0.00000000E+00
  0.00000000E+00  0.00000000E+00  0.00000000E+00
  0.00000000E+00  0.00000000E+00  0.00000000E+00
