Graphene-BC3 Hollow with lattice paramet
   1.00000000000000     
     4.3699641874962758    2.5229999999999992    0.0000000000000000
    -4.3699641874962758    2.5229999999999992    0.0000000000000000
     0.0000000000000000    0.0000000000000000   15.0000000000000000
   B    C 
     2    14
Direct
  0.3382646441467866  0.6691313380920326  0.1004391183676778
  0.6716006660501118  0.3357993248553515  0.1001284254391040
  0.1645406929450887  0.3216836897436023  0.1001355358243460
  0.3240757116624889  0.1620367298835947  0.1001445522270179
  0.1645408500136310  0.8428547744631203  0.1001354862427926
  0.8453572673127709  0.1620351040172630  0.1001351276232996
  0.6857061195413945  0.8428522520094256  0.1001261608468934
  0.8453567175790455  0.6833196072084121  0.1001352110816899
  0.3334193201466709  0.1667102956550693  0.3254123497211598
  0.5001085805658830  0.0001189298094290  0.3253887087173801
  0.3333996496647779  0.6667004719997414  0.3251035919313697
  0.5001085675823667  0.4999906698967119  0.3253887073258993
  0.8333946809687242  0.1667115498034552  0.3254076295566455
  0.0000709122841263  0.0000359389449904  0.3253890446226191
  0.8333946676305679  0.6666843555716171  0.3254076417301634
  0.9999862852389000  0.4999936347128787  0.3253893754086131
 
  0.00000000E+00  0.00000000E+00  0.00000000E+00
  0.00000000E+00  0.00000000E+00  0.00000000E+00
  0.00000000E+00  0.00000000E+00  0.00000000E+00
  0.00000000E+00  0.00000000E+00  0.00000000E+00
  0.00000000E+00  0.00000000E+00  0.00000000E+00
  0.00000000E+00  0.00000000E+00  0.00000000E+00
  0.00000000E+00  0.00000000E+00  0.00000000E+00
  0.00000000E+00  0.00000000E+00  0.00000000E+00
  0.00000000E+00  0.00000000E+00  0.00000000E+00
  0.00000000E+00  0.00000000E+00  0.00000000E+00
  0.00000000E+00  0.00000000E+00  0.00000000E+00
  0.00000000E+00  0.00000000E+00  0.00000000E+00
  0.00000000E+00  0.00000000E+00  0.00000000E+00
  0.00000000E+00  0.00000000E+00  0.00000000E+00
  0.00000000E+00  0.00000000E+00  0.00000000E+00
  0.00000000E+00  0.00000000E+00  0.00000000E+00
