Graphene-Borophene Hollow 2 with lattice
   1.00000000000000     
     4.3050122822124441    2.4855000000000000    0.0000000000000000
    -4.3050122822124441    2.4855000000000000    0.0000000000000000
     0.0000000000000000    0.0000000000000000   15.0000000000000000
   B    C 
     8     8
Direct
  0.6692362035040863 -0.0000884051726385  0.1670354035248862
  0.3306743913232781 -0.0000884051726385  0.1670354035248862
  0.0000884051726385  0.3307627964959167  0.1670354035248862
  0.0000884051726385  0.6693246086767245  0.1670354035248862
  0.3306743913232781  0.3307627964959167  0.1670354035248862
  0.6692362035040863  0.6693246086767245  0.1670354035248862
  0.6666659999999993  0.3333330000000032  0.1576129166080501
  0.3333330000000032  0.6666659999999993  0.1773412774057513
  0.3333596279765094  0.1666798139882618  0.4034381659664683
  0.5000235672402538  0.0000471344805065  0.4035296535318038
  0.3333326666666636  0.6666663333333389  0.4034470735576138
  0.5000235672402538  0.4999754327597493  0.4035296535318038
  0.8333191860117404  0.1666798139882618  0.4034381659664683
  0.9999996666666675  0.9999993333333350  0.4032828527844437
  0.8333191860117404  0.6666393720234928  0.4034381659664683
 -0.0000481344805041  0.4999754327597493  0.4035296535318038
 
  0.00000000E+00  0.00000000E+00  0.00000000E+00
  0.00000000E+00  0.00000000E+00  0.00000000E+00
  0.00000000E+00  0.00000000E+00  0.00000000E+00
  0.00000000E+00  0.00000000E+00  0.00000000E+00
  0.00000000E+00  0.00000000E+00  0.00000000E+00
  0.00000000E+00  0.00000000E+00  0.00000000E+00
  0.00000000E+00  0.00000000E+00  0.00000000E+00
  0.00000000E+00  0.00000000E+00  0.00000000E+00
  0.00000000E+00  0.00000000E+00  0.00000000E+00
  0.00000000E+00  0.00000000E+00  0.00000000E+00
  0.00000000E+00  0.00000000E+00  0.00000000E+00
  0.00000000E+00  0.00000000E+00  0.00000000E+00
  0.00000000E+00  0.00000000E+00  0.00000000E+00
  0.00000000E+00  0.00000000E+00  0.00000000E+00
  0.00000000E+00  0.00000000E+00  0.00000000E+00
  0.00000000E+00  0.00000000E+00  0.00000000E+00
