Graphene-Borophene Hollow 2 with lattice
   1.00000000000000     
     4.3145385616540723    2.4909999999999997    0.0000000000000000
    -4.3145385616540723    2.4909999999999997    0.0000000000000000
     0.0000000000000000    0.0000000000000000   15.0000000000000000
   B    C 
     8     8
Direct
  0.6695048936036996 -0.0000538297549986  0.1669273499550028
  0.3304402766413042 -0.0000538297549986  0.1669273499550028
  0.0000538297549986  0.3304941063963029  0.1669273499550029
  0.0000538297549986  0.6695587233586984  0.1669273499550028
  0.3304402766413042  0.3304941063963029  0.1669273499550028
  0.6695048936036996  0.6695587233586984  0.1669273499550028
  0.6666659999999993  0.3333330000000032  0.1615679052963452
  0.3333330000000032  0.6666659999999993  0.1729959713360890
  0.3333483146123921  0.1666741573062032  0.4035654845793153
  0.5000204733482884  0.0000409466965761  0.4036455597795091
  0.3333326666666636  0.6666663333333389  0.4035925077134236
  0.5000204733482884  0.4999785266517149  0.4036455597795091
  0.8333248426937997  0.1666741573062031  0.4035654845793153
  0.9999996666666675  0.9999993333333350  0.4034463828476434
  0.8333248426937997  0.6666506853876106  0.4035654845793153
 -0.0000419466965737  0.4999785266517149  0.4036455597795091
 
  0.00000000E+00  0.00000000E+00  0.00000000E+00
  0.00000000E+00  0.00000000E+00  0.00000000E+00
  0.00000000E+00  0.00000000E+00  0.00000000E+00
  0.00000000E+00  0.00000000E+00  0.00000000E+00
  0.00000000E+00  0.00000000E+00  0.00000000E+00
  0.00000000E+00  0.00000000E+00  0.00000000E+00
  0.00000000E+00  0.00000000E+00  0.00000000E+00
  0.00000000E+00  0.00000000E+00  0.00000000E+00
  0.00000000E+00  0.00000000E+00  0.00000000E+00
  0.00000000E+00  0.00000000E+00  0.00000000E+00
  0.00000000E+00  0.00000000E+00  0.00000000E+00
  0.00000000E+00  0.00000000E+00  0.00000000E+00
  0.00000000E+00  0.00000000E+00  0.00000000E+00
  0.00000000E+00  0.00000000E+00  0.00000000E+00
  0.00000000E+00  0.00000000E+00  0.00000000E+00
  0.00000000E+00  0.00000000E+00  0.00000000E+00
