Graphene-B4C3 Top with lattice parameter
   1.00000000000000     
     4.2140796148150779    2.4329999999999998    0.0000000000000000
    -4.2140796148150779    2.4329999999999998    0.0000000000000000
     0.0000000000000000    0.0000000000000000   15.0000000000000000
   B    C 
     4    11
Direct
  0.0040373683189428  0.0026850658637740  0.1007836326710018
  0.3592188337495208  0.0029950167475134  0.1003571944545549
  0.0037258924026638  0.3575557766411608  0.1003582341809103
  0.6491574365398405  0.6475011903153914  0.1003539395715210
  0.3275723843120857  0.3259270681841090  0.1003321105891790
  0.6807884572290606  0.0029779297251650  0.1003326774066764
  0.0037334008153321  0.6791362893772352  0.1003299475251003
  0.0001534040027859  0.5000745824903037  0.3350863330866169
  0.1667990245626814  0.3334575398378952  0.3351198827492478
  0.0001322597491727  0.0000810090601186  0.3350502150437386
  0.1668418573565045  0.8334158249388508  0.3351236471406718
  0.5001418925721776  0.5001124282985703  0.3350889297134634
  0.6667992744439254  0.3334160900146123  0.3349910406618900
  0.5001020806569260  0.0000601029552197  0.3350848052739589
  0.6667570999550744  0.8333714188834060  0.3351200765981519
 
  0.00000000E+00  0.00000000E+00  0.00000000E+00
  0.00000000E+00  0.00000000E+00  0.00000000E+00
  0.00000000E+00  0.00000000E+00  0.00000000E+00
  0.00000000E+00  0.00000000E+00  0.00000000E+00
  0.00000000E+00  0.00000000E+00  0.00000000E+00
  0.00000000E+00  0.00000000E+00  0.00000000E+00
  0.00000000E+00  0.00000000E+00  0.00000000E+00
  0.00000000E+00  0.00000000E+00  0.00000000E+00
  0.00000000E+00  0.00000000E+00  0.00000000E+00
  0.00000000E+00  0.00000000E+00  0.00000000E+00
  0.00000000E+00  0.00000000E+00  0.00000000E+00
  0.00000000E+00  0.00000000E+00  0.00000000E+00
  0.00000000E+00  0.00000000E+00  0.00000000E+00
  0.00000000E+00  0.00000000E+00  0.00000000E+00
  0.00000000E+00  0.00000000E+00  0.00000000E+00
