Graphene-BC3 Top with lattice parameter 
   1.00000000000000     
     4.3682321366887082    2.5219999999999998    0.0000000000000000
    -4.3682321366887082    2.5219999999999998    0.0000000000000000
     0.0000000000000000    0.0000000000000000   15.0000000000000000
   B    C 
     2    14
Direct
  0.3383345748578133  0.6691672749012899  0.1002341974069068
  0.6716676030333328  0.3358336481532667  0.1002341827179296
  0.1646252695540268  0.3217445693578120  0.0999101131509307
  0.3242479828306864  0.1621241319228322  0.0999091556780766
  0.1646264306157656  0.8428813434583360  0.0999101101767005
  0.8453840535990886  0.1621214863592963  0.0999116058310008
  0.6857654507314017  0.8428817547088707  0.0999121806124472
  0.8453854279737253  0.6832618109821401  0.0999116003076645
  0.1665649428289120  0.3331370453236636  0.3288836928083269
  0.3331344534038846  0.1665670248201804  0.3288848083949950
  0.1665649442993147  0.8334274931549543  0.3288836924491895
  0.3333265799300973  0.6666630902068040  0.3285860384655028
  0.6666599618759022  0.3333297785285956  0.3285860377157608
  0.8334249749608730  0.1665675983637834  0.3288812915095762
  0.6668543795908273  0.8334269878951687  0.3288800017157346
  0.8334249699143678  0.6668569618630154  0.3288812910592777
 
  0.00000000E+00  0.00000000E+00  0.00000000E+00
  0.00000000E+00  0.00000000E+00  0.00000000E+00
  0.00000000E+00  0.00000000E+00  0.00000000E+00
  0.00000000E+00  0.00000000E+00  0.00000000E+00
  0.00000000E+00  0.00000000E+00  0.00000000E+00
  0.00000000E+00  0.00000000E+00  0.00000000E+00
  0.00000000E+00  0.00000000E+00  0.00000000E+00
  0.00000000E+00  0.00000000E+00  0.00000000E+00
  0.00000000E+00  0.00000000E+00  0.00000000E+00
  0.00000000E+00  0.00000000E+00  0.00000000E+00
  0.00000000E+00  0.00000000E+00  0.00000000E+00
  0.00000000E+00  0.00000000E+00  0.00000000E+00
  0.00000000E+00  0.00000000E+00  0.00000000E+00
  0.00000000E+00  0.00000000E+00  0.00000000E+00
  0.00000000E+00  0.00000000E+00  0.00000000E+00
  0.00000000E+00  0.00000000E+00  0.00000000E+00
