BC3 with lattice parameter 5.169        
   1.00000000000000     
     4.4559029065474789    2.5726192942374597    0.0000000000000000
    -4.4559033378403434    2.5726200412154006    0.0000000000000000
     0.0000000000000000    0.0000000000000000   15.0000000000000000
  B/a32ced30f5ae  C/253f7b50bb8d
               2               6
Direct
  0.3383335232829544  0.6691652770356494  0.2500000007715602
  0.6716646400972247  0.3358333712473502  0.2500000005159171
  0.1632842077983246  0.3190709569546586  0.2500000019379615
  0.3215700300265749  0.1607856668040528  0.2500000005140247
  0.1632878639028604  0.8442143827485872  0.2500000007617345
  0.8467113197503567  0.1607851504611902  0.2500000016151517
  0.6884293738376053  0.8442134983437413  0.2499999972622333
  0.8467150413041010  0.6859276964047692  0.2499999966214170
 
  0.00000000E+00  0.00000000E+00  0.00000000E+00
  0.00000000E+00  0.00000000E+00  0.00000000E+00
  0.00000000E+00  0.00000000E+00  0.00000000E+00
  0.00000000E+00  0.00000000E+00  0.00000000E+00
  0.00000000E+00  0.00000000E+00  0.00000000E+00
  0.00000000E+00  0.00000000E+00  0.00000000E+00
  0.00000000E+00  0.00000000E+00  0.00000000E+00
  0.00000000E+00  0.00000000E+00  0.00000000E+00
