BC3 with lattice parameter 5.169        
   1.00000000000000     
     4.4764850000000003    2.5844999999999998    0.0000000000000000
    -4.4764850000000003    2.5844999999999998    0.0000000000000000
     0.0000000000000000    0.0000000000000000   15.0000000000000000
   B    C 
     2     6
Direct
  0.3383341886003650  0.6691650894765573  0.2500000000000000
  0.6716663153566701  0.3358318964702763  0.2500000000000000
  0.1637459181908538  0.3199995214018957  0.2500000000000000
  0.3224994810579047  0.1612502658377971  0.2500000000000000
  0.1637542863956930  0.8437491756871363  0.2500000000000000
  0.8462441804439798  0.1612505843574572  0.2500000000000000
  0.6875000162823703  0.8437501109410035  0.2500000000000000
  0.8462516136721654  0.6849993558278754  0.2500000000000000
 
  0.00000000E+00  0.00000000E+00  0.00000000E+00
  0.00000000E+00  0.00000000E+00  0.00000000E+00
  0.00000000E+00  0.00000000E+00  0.00000000E+00
  0.00000000E+00  0.00000000E+00  0.00000000E+00
  0.00000000E+00  0.00000000E+00  0.00000000E+00
  0.00000000E+00  0.00000000E+00  0.00000000E+00
  0.00000000E+00  0.00000000E+00  0.00000000E+00
  0.00000000E+00  0.00000000E+00  0.00000000E+00
