Graphene-BC3 Hollow with lattice paramet
   1.00000000000000     
     4.3682321366887082    2.5219999999999998    0.0000000000000000
    -4.3682321366887082    2.5219999999999998    0.0000000000000000
     0.0000000000000000    0.0000000000000000   15.0000000000000000
    C 
    8
Direct

  0.3334811173097488  0.1667431367592647  0.3381403848010126
  0.5001692877925906  0.0001509535779327  0.3381174106109538
  0.3334617459026261  0.6667334489019370  0.3378319248477867
  0.5001692848023793  0.5000237365039808  0.3381174094127665
  0.8334564745697493  0.1667444710285644  0.3381357855044997
  0.0001317547184831  0.0000685770052506  0.3381205112583746
  0.8334564922913100  0.6667172008886791  0.3381358174259232
  0.0000478974999242  0.5000266465460191  0.3381180006530573
