Graphene-BC3 Bridge with lattice paramet
   1.00000000000000     
     4.3301270189221928    2.5000000000000000    0.0000000000000000
    -4.3301270189221928    2.5000000000000000    0.0000000000000000
     0.0000000000000000    0.0000000000000000   15.0000000000000000
   B    C 
     2    14
Direct
  0.3174599291564535  0.6914843024861422  0.1006127839880784
  0.6507928031620919  0.3581671554733801  0.1004158627458682
  0.1440514762190868  0.3447285529917041  0.0980043642097640
  0.3038769704982842  0.1847183855109542  0.1027761870614723
  0.1439424616234837  0.8650126505583373  0.1050576471649214
  0.8242475122347642  0.1846960494743864  0.0955284460318874
  0.6642244511637235  0.8649069227362208  0.0979200083718916
  0.8242372837979520  0.7050846815119346  0.1026889866493444
  0.2709046787335901  0.2276100847745590  0.3260397803907376
  0.4375301802653675  0.0610305748920471  0.3260106240263770
  0.2708688599021110  0.7276768000084930  0.3257739295946713
  0.4375953318391662  0.5609453701657726  0.3259510051948103
  0.7708932465926549  0.2276500970098642  0.3258841294328553
  0.9375844919257684  0.0609590081956466  0.3259676300057393
  0.7709352814723410  0.7276419533681301  0.3260346380193156
  0.9375137080798664  0.5610127441757519  0.3260006437789228
 
  0.00000000E+00  0.00000000E+00  0.00000000E+00
  0.00000000E+00  0.00000000E+00  0.00000000E+00
  0.00000000E+00  0.00000000E+00  0.00000000E+00
  0.00000000E+00  0.00000000E+00  0.00000000E+00
  0.00000000E+00  0.00000000E+00  0.00000000E+00
  0.00000000E+00  0.00000000E+00  0.00000000E+00
  0.00000000E+00  0.00000000E+00  0.00000000E+00
  0.00000000E+00  0.00000000E+00  0.00000000E+00
  0.00000000E+00  0.00000000E+00  0.00000000E+00
  0.00000000E+00  0.00000000E+00  0.00000000E+00
  0.00000000E+00  0.00000000E+00  0.00000000E+00
  0.00000000E+00  0.00000000E+00  0.00000000E+00
  0.00000000E+00  0.00000000E+00  0.00000000E+00
  0.00000000E+00  0.00000000E+00  0.00000000E+00
  0.00000000E+00  0.00000000E+00  0.00000000E+00
  0.00000000E+00  0.00000000E+00  0.00000000E+00
