Graphene-BC3 Bridge with lattice paramet
   1.00000000000000     
     4.3777584161303364    2.5274999999999999    0.0000000000000000
    -4.3777584161303364    2.5274999999999999    0.0000000000000000
     0.0000000000000000    0.0000000000000000   15.0000000000000000
   B    C 
     2    14
Direct
  0.2990035021677475  0.7110989133806903  0.1006381623437119
  0.6323860973835147  0.3777239557392593  0.1003340910591531
  0.1252604571394749  0.3634757398536854  0.1004689190109508
  0.2847225808504095  0.2039502681782596  0.1002995171939530
  0.1252440760019007  0.8848524841944851  0.1001625648643418
  0.8062003831422828  0.2039009043752770  0.1005885319006412
  0.6466074896901309  0.8848286596278189  0.1004416131685016
  0.8061610360930209  0.7253870539822506  0.1002722491111945
  0.2893137338156975  0.2081106567551527  0.3259833847388898
  0.4560144993110606  0.0415126380845053  0.3259219114313187
  0.2892939591286230  0.7080981190464528  0.3256947320717135
  0.4560097283148101  0.5413808945888947  0.3259645519507486
  0.7892880003101261  0.2081137617722947  0.3260035247703488
  0.9559762670095121  0.0414269116722907  0.3259960091739287
  0.7892884692230120  0.7080831468129689  0.3259732969600210
  0.9558883870853829  0.5413812252690382  0.3259236069172397
 
  0.00000000E+00  0.00000000E+00  0.00000000E+00
  0.00000000E+00  0.00000000E+00  0.00000000E+00
  0.00000000E+00  0.00000000E+00  0.00000000E+00
  0.00000000E+00  0.00000000E+00  0.00000000E+00
  0.00000000E+00  0.00000000E+00  0.00000000E+00
  0.00000000E+00  0.00000000E+00  0.00000000E+00
  0.00000000E+00  0.00000000E+00  0.00000000E+00
  0.00000000E+00  0.00000000E+00  0.00000000E+00
  0.00000000E+00  0.00000000E+00  0.00000000E+00
  0.00000000E+00  0.00000000E+00  0.00000000E+00
  0.00000000E+00  0.00000000E+00  0.00000000E+00
  0.00000000E+00  0.00000000E+00  0.00000000E+00
  0.00000000E+00  0.00000000E+00  0.00000000E+00
  0.00000000E+00  0.00000000E+00  0.00000000E+00
  0.00000000E+00  0.00000000E+00  0.00000000E+00
  0.00000000E+00  0.00000000E+00  0.00000000E+00
