Graphene-B4C3 Hollow 2 with lattice para
   1.00000000000000     
     4.1880988527015450    2.4180000000000001    0.0000000000000000
    -4.1880988527015450    2.4180000000000001    0.0000000000000000
     0.0000000000000000    0.0000000000000000   15.0000000000000000
   B    C 
     4    11
Direct
  0.0043569481626337  0.0028909576402865  0.0995429949255128
  0.3595103635899617  0.0028997843177831  0.1012494200478540
  0.0043672827695328  0.3580461411594268  0.1012515518932528
  0.6492177761083707  0.6477496835823257  0.1012554861283670
  0.3281298708084729  0.3266611905607592  0.1009879243267913
  0.6806070320784552  0.0029010112158552  0.1009855654853997
  0.0043681619671837  0.6791415035848670  0.1009855574073981
  0.1664866244254511  0.3332247786204710  0.3381498578703949
  0.3331740538532906  0.1665374073264241  0.3381516244123108
  0.1665286575274069  0.8332476983218133  0.3381539310221726
  0.3331757046001850  0.6665605671861012  0.3380402744209203
  0.6665090569086721  0.3332258514867814  0.3380402719463004
  0.8331962182509830  0.1665789515016078  0.3381533096908502
  0.6665101327726974  0.8332072970677150  0.3381496897320360
  0.8331561161767103  0.6665611764277949  0.3381485406904666
 
  0.00000000E+00  0.00000000E+00  0.00000000E+00
  0.00000000E+00  0.00000000E+00  0.00000000E+00
  0.00000000E+00  0.00000000E+00  0.00000000E+00
  0.00000000E+00  0.00000000E+00  0.00000000E+00
  0.00000000E+00  0.00000000E+00  0.00000000E+00
  0.00000000E+00  0.00000000E+00  0.00000000E+00
  0.00000000E+00  0.00000000E+00  0.00000000E+00
  0.00000000E+00  0.00000000E+00  0.00000000E+00
  0.00000000E+00  0.00000000E+00  0.00000000E+00
  0.00000000E+00  0.00000000E+00  0.00000000E+00
  0.00000000E+00  0.00000000E+00  0.00000000E+00
  0.00000000E+00  0.00000000E+00  0.00000000E+00
  0.00000000E+00  0.00000000E+00  0.00000000E+00
  0.00000000E+00  0.00000000E+00  0.00000000E+00
  0.00000000E+00  0.00000000E+00  0.00000000E+00
