Graphene-B4C3 Hollow 1 with lattice para
   1.00000000000000     
     4.1906969289128986    2.4195000000000002    0.0000000000000000
    -4.1906969289128986    2.4195000000000002    0.0000000000000000
     0.0000000000000000    0.0000000000000000   15.0000000000000000
   B    C 
     4    11
Direct
  0.0046571985322206  0.0023611259830719  0.1044697073779235
  0.3595310682772490  0.0023541684513686  0.1010001446591481
  0.0046953125080942  0.3573277071429340  0.1010605524898192
  0.6498199216112190  0.6473666539016809  0.1010353599640186
  0.3284003313440738  0.3259451796519933  0.1013297419463143
  0.6811127078523540  0.0023299135614263  0.1013352699026150
  0.0046981443960709  0.6785812849553318  0.1013434421928315
  0.1105942225980672  0.3892508756699866  0.3375015029765125
  0.2773044707379569  0.2226193663982552  0.3376188148602248
  0.1106629153017095  0.8892996579436449  0.3375533337690387
  0.2773471396800904  0.7226146781347237  0.3374477739337180
  0.6106849355761705  0.3892592704418859  0.3374457585435376
  0.7773534228020456  0.2226108798730774  0.3375152667312929
  0.6106894522532479  0.8893228059231243  0.3376027709986038
  0.7772983120849811  0.7226348764119636  0.3375198929877230
 
  0.00000000E+00  0.00000000E+00  0.00000000E+00
  0.00000000E+00  0.00000000E+00  0.00000000E+00
  0.00000000E+00  0.00000000E+00  0.00000000E+00
  0.00000000E+00  0.00000000E+00  0.00000000E+00
  0.00000000E+00  0.00000000E+00  0.00000000E+00
  0.00000000E+00  0.00000000E+00  0.00000000E+00
  0.00000000E+00  0.00000000E+00  0.00000000E+00
  0.00000000E+00  0.00000000E+00  0.00000000E+00
  0.00000000E+00  0.00000000E+00  0.00000000E+00
  0.00000000E+00  0.00000000E+00  0.00000000E+00
  0.00000000E+00  0.00000000E+00  0.00000000E+00
  0.00000000E+00  0.00000000E+00  0.00000000E+00
  0.00000000E+00  0.00000000E+00  0.00000000E+00
  0.00000000E+00  0.00000000E+00  0.00000000E+00
  0.00000000E+00  0.00000000E+00  0.00000000E+00
