Graphene-B4C3 Bridge with lattice parame
   1.00000000000000     
     4.2088834623923717    2.4300000000000002    0.0000000000000000
    -4.2088834623923717    2.4300000000000002    0.0000000000000000
     0.0000000000000000    0.0000000000000000   15.0000000000000000
   B    C 
     4    11
Direct
  0.0336740171585484 -0.0251951380173081  0.1010107818407716
  0.3889187657928476 -0.0247321332151535  0.1021645607585582
  0.0334000354594806  0.3297588939815361  0.1021534140562427
  0.6787251612864923  0.6196627142303743  0.1021642126508369
  0.3571558247410736  0.2983460410273160  0.1018321132158256
  0.7102383012438283 -0.0249914426767887  0.1019930821369409
  0.0333479329785568  0.6512530783648455  0.1018830144837923
  0.0575975982488972  0.4410851491380990  0.3365172168306648
  0.2241889065963000  0.2743819889150608  0.3366105895917132
  0.0575918699411584  0.9411103854958061  0.3365021620091048
  0.2243078351874531  0.7744739467596693  0.3364892409727180
  0.5575824039983648  0.4411247737858035  0.3365082507069581
  0.7242292919939921  0.2744386477404008  0.3364111559617302
  0.5574816957515293  0.9409834728915371  0.3366313641537499
  0.7241876929547997  0.7744002882454990  0.3365081739637283
 
  0.00000000E+00  0.00000000E+00  0.00000000E+00
  0.00000000E+00  0.00000000E+00  0.00000000E+00
  0.00000000E+00  0.00000000E+00  0.00000000E+00
  0.00000000E+00  0.00000000E+00  0.00000000E+00
  0.00000000E+00  0.00000000E+00  0.00000000E+00
  0.00000000E+00  0.00000000E+00  0.00000000E+00
  0.00000000E+00  0.00000000E+00  0.00000000E+00
  0.00000000E+00  0.00000000E+00  0.00000000E+00
  0.00000000E+00  0.00000000E+00  0.00000000E+00
  0.00000000E+00  0.00000000E+00  0.00000000E+00
  0.00000000E+00  0.00000000E+00  0.00000000E+00
  0.00000000E+00  0.00000000E+00  0.00000000E+00
  0.00000000E+00  0.00000000E+00  0.00000000E+00
  0.00000000E+00  0.00000000E+00  0.00000000E+00
  0.00000000E+00  0.00000000E+00  0.00000000E+00
