B4C3 with lattice parameter 4.690       
   1.00000000000000     
     4.0616589999999997    2.3450000000000002    0.0000000000000000
    -4.0616589999999997    2.3450000000000002    0.0000000000000000
     0.0000000000000000    0.0000000000000000   15.0000000000000000
   B    C 
     4     3
Direct
  0.0041839940767149  0.0027712131891322  0.1202639341603643
  0.3569549468561160  0.0027809432794246  0.0975036236712015
  0.0041863833121992  0.3555425497911878  0.0975030082190572
  0.6514162243787893  0.6500109742647562  0.0975061293085772
  0.3281018923582382  0.3266946424816817  0.1002824588196717
  0.6802679627804211  0.0027806488276066  0.1002924172174794
  0.0041865962375189  0.6788570281662116  0.1002944286036601
 
  0.00000000E+00  0.00000000E+00  0.00000000E+00
  0.00000000E+00  0.00000000E+00  0.00000000E+00
  0.00000000E+00  0.00000000E+00  0.00000000E+00
  0.00000000E+00  0.00000000E+00  0.00000000E+00
  0.00000000E+00  0.00000000E+00  0.00000000E+00
  0.00000000E+00  0.00000000E+00  0.00000000E+00
  0.00000000E+00  0.00000000E+00  0.00000000E+00
