B4C3 with lattice parameter 4.690
        1.0
        4.061659    2.345000    0.000000
       -4.061659    2.345000    0.000000
        0.000000    0.000000    15.00000
        B   C
        4   3
        Direct
        0.012000    0.008000    0.113646
        0.335033    0.019000    0.100000
        0.018000    0.328933    0.100000
        0.664666    0.670006    0.100000
        0.329933    0.329833    0.100000
        0.665666    0.004000    0.100000
        0.004000    0.659666    0.100000