Graphene-B4C3 Bridge with lattice parame
   1.00000000000000     
     4.1976251321431741    2.4235000000000002    0.0000000000000000
    -4.1976251321431741    2.4235000000000002    0.0000000000000000
     0.0000000000000000    0.0000000000000000   15.0000000000000000
   B    C 
     4    11
Direct
  0.0188453659969353 -0.0111174272644327  0.1019469216248895
  0.3741006858815755 -0.0110267724910856  0.1009203374816193
  0.0188751881534747  0.3439920204091128  0.1011524468661472
  0.6639537701838396  0.6335444649998463  0.1010917509037475
  0.3427072505880295  0.3123515786443632  0.1010396935010948
  0.6954192119010628 -0.0110776021092139  0.1011539203066304
  0.0186115988390759  0.6649833126984472  0.1010963269641709
  0.0704780393762767  0.4288996166912374  0.3370950434081442
  0.2370776135397235  0.2621790895299059  0.3371977719321053
  0.0704295159328143  0.9289134702738596  0.3371384691394833
  0.2370988964573727  0.7622539534046059  0.3371017111132621
  0.5704020070002144  0.4289157465576285  0.3371275143645261
  0.7370902293560606  0.2622090474602604  0.3370264740494726
  0.5704012921253712  0.9288609606566474  0.3371818863862643
  0.7371366680014951  0.7622192072055139  0.3371090652917780
 
  0.00000000E+00  0.00000000E+00  0.00000000E+00
  0.00000000E+00  0.00000000E+00  0.00000000E+00
  0.00000000E+00  0.00000000E+00  0.00000000E+00
  0.00000000E+00  0.00000000E+00  0.00000000E+00
  0.00000000E+00  0.00000000E+00  0.00000000E+00
  0.00000000E+00  0.00000000E+00  0.00000000E+00
  0.00000000E+00  0.00000000E+00  0.00000000E+00
  0.00000000E+00  0.00000000E+00  0.00000000E+00
  0.00000000E+00  0.00000000E+00  0.00000000E+00
  0.00000000E+00  0.00000000E+00  0.00000000E+00
  0.00000000E+00  0.00000000E+00  0.00000000E+00
  0.00000000E+00  0.00000000E+00  0.00000000E+00
  0.00000000E+00  0.00000000E+00  0.00000000E+00
  0.00000000E+00  0.00000000E+00  0.00000000E+00
  0.00000000E+00  0.00000000E+00  0.00000000E+00
