Graphene-B4C3 Bridge with lattice parame
   1.00000000000000     
     4.1950270559318197    2.4219999999999997    0.0000000000000000
    -4.1950270559318197    2.4219999999999997    0.0000000000000000
     0.0000000000000000    0.0000000000000000   15.0000000000000000
   B    C 
     4    11
Direct
  0.0282378419112605 -0.0199570749320662  0.1038585228537342
  0.3833149063903549 -0.0197700525829995  0.1019283869673824
  0.0281998056527228  0.3349267894368267  0.1021502888920952
  0.6735065366773921  0.6248090029833940  0.1020813395805349
  0.3520702435439811  0.3035207800844708  0.1021930299597300
  0.7046737754761818 -0.0199615936452991  0.1021306016544598
  0.0279009434525590  0.6561297412733256  0.1022224368924464
  0.0622867849451015  0.4366273456062171  0.3360759574591536
  0.2289486807924737  0.2700296694850727  0.3361940862678201
  0.0622721068111536  0.9366226126082893  0.3360829074049422
  0.2289929016814869  0.7699976201782882  0.3361061582201149
  0.5622472118138552  0.4366243649399362  0.3360962893352419
  0.7289040929640189  0.2699681558585663  0.3360026400752222
  0.5622066201150212  0.9365896219638610  0.3361485908661537
  0.7288648811057575  0.7699436834088124  0.3361080969043039
 
  0.00000000E+00  0.00000000E+00  0.00000000E+00
  0.00000000E+00  0.00000000E+00  0.00000000E+00
  0.00000000E+00  0.00000000E+00  0.00000000E+00
  0.00000000E+00  0.00000000E+00  0.00000000E+00
  0.00000000E+00  0.00000000E+00  0.00000000E+00
  0.00000000E+00  0.00000000E+00  0.00000000E+00
  0.00000000E+00  0.00000000E+00  0.00000000E+00
  0.00000000E+00  0.00000000E+00  0.00000000E+00
  0.00000000E+00  0.00000000E+00  0.00000000E+00
  0.00000000E+00  0.00000000E+00  0.00000000E+00
  0.00000000E+00  0.00000000E+00  0.00000000E+00
  0.00000000E+00  0.00000000E+00  0.00000000E+00
  0.00000000E+00  0.00000000E+00  0.00000000E+00
  0.00000000E+00  0.00000000E+00  0.00000000E+00
  0.00000000E+00  0.00000000E+00  0.00000000E+00
