Graphene-B4C3 Bridge with lattice parame
   1.00000000000000     
     4.2045533353734497    2.4275000000000002    0.0000000000000000
    -4.2045533353734497    2.4275000000000002    0.0000000000000000
     0.0000000000000000    0.0000000000000000   15.0000000000000000
   B    C 
     4    11
Direct
  0.0268326833019753 -0.0188289275166937  0.1052186808591788
  0.3820548831186283 -0.0187312674573010  0.1017163286543184
  0.0266745965456476  0.3360574434030763  0.1016982984508329
  0.6720068462618725  0.6260309805907762  0.1017285721531709
  0.3505305702317311  0.3045265944975262  0.1019356961679183
  0.7034617142038978 -0.0187388797909222  0.1023449134426282
  0.0270382549842257  0.6578111462391260  0.1020139397472378
  0.0634593381449259  0.4355572014341521  0.3359871821136484
  0.2300970453973207  0.2689719001497156  0.3362107858520245
  0.0634567323506118  0.9356253195245340  0.3360766239809870
  0.2300804981090032  0.7689030423719773  0.3361587880761243
  0.5633872536959110  0.4355589402481538  0.3360591907213540
  0.7300777232695501  0.2689168210944240  0.3360219507130540
  0.5634007108884008  0.9355725042555592  0.3360441489211373
  0.7300684828296197  0.7688678476225944  0.3361642334797211
 
  0.00000000E+00  0.00000000E+00  0.00000000E+00
  0.00000000E+00  0.00000000E+00  0.00000000E+00
  0.00000000E+00  0.00000000E+00  0.00000000E+00
  0.00000000E+00  0.00000000E+00  0.00000000E+00
  0.00000000E+00  0.00000000E+00  0.00000000E+00
  0.00000000E+00  0.00000000E+00  0.00000000E+00
  0.00000000E+00  0.00000000E+00  0.00000000E+00
  0.00000000E+00  0.00000000E+00  0.00000000E+00
  0.00000000E+00  0.00000000E+00  0.00000000E+00
  0.00000000E+00  0.00000000E+00  0.00000000E+00
  0.00000000E+00  0.00000000E+00  0.00000000E+00
  0.00000000E+00  0.00000000E+00  0.00000000E+00
  0.00000000E+00  0.00000000E+00  0.00000000E+00
  0.00000000E+00  0.00000000E+00  0.00000000E+00
  0.00000000E+00  0.00000000E+00  0.00000000E+00
