Graphene-Borophene Hollow 1 with lattice
   1.00000000000000     
     4.2608449866194382    2.4600000000000000    0.0000000000000000
    -4.2608449866194382    2.4600000000000000    0.0000000000000000
     0.0000000000000000    0.0000000000000000   15.0000000000000000
   B    C 
     8     8
Direct
  0.6705533721664600 -0.0009986059034607  0.1647711659734435
  0.3324797448998944 -0.0011176729993969  0.1664254943141226
  0.0009986059034607  0.3294456278335429  0.1647711659734435
  0.0011176729993969  0.6675192551001085  0.1664254943141226
  0.3319645754748189  0.3296395265192315  0.1686369836373307
  0.6703594734807707  0.6680344245251831  0.1686369836373307
  0.6675884349505492  0.3324105650494529  0.1827100943600516
  0.3341697238995774  0.6658292761004246  0.1516791206191497
  0.2766315749564184  0.2234152330100737  0.4027890366085057
  0.4433062473837185  0.0567377266850179  0.4029146259192060
  0.2766538719738061  0.7233451280261968  0.4028324076340924
  0.4433341676583984  0.5566648323416038  0.4028974984584300
  0.7766207659158082  0.2233782340841937  0.4029573847755643
  0.9432586169209400  0.0567403830790626  0.4026488812475043
  0.7765837669899291  0.7233674250435844  0.4027890366085057
  0.9432612733149847  0.5566927526162840  0.4029146259192060
 
  0.00000000E+00  0.00000000E+00  0.00000000E+00
  0.00000000E+00  0.00000000E+00  0.00000000E+00
  0.00000000E+00  0.00000000E+00  0.00000000E+00
  0.00000000E+00  0.00000000E+00  0.00000000E+00
  0.00000000E+00  0.00000000E+00  0.00000000E+00
  0.00000000E+00  0.00000000E+00  0.00000000E+00
  0.00000000E+00  0.00000000E+00  0.00000000E+00
  0.00000000E+00  0.00000000E+00  0.00000000E+00
  0.00000000E+00  0.00000000E+00  0.00000000E+00
  0.00000000E+00  0.00000000E+00  0.00000000E+00
  0.00000000E+00  0.00000000E+00  0.00000000E+00
  0.00000000E+00  0.00000000E+00  0.00000000E+00
  0.00000000E+00  0.00000000E+00  0.00000000E+00
  0.00000000E+00  0.00000000E+00  0.00000000E+00
  0.00000000E+00  0.00000000E+00  0.00000000E+00
  0.00000000E+00  0.00000000E+00  0.00000000E+00
