Graphene-B4C3 Hollow 2 with lattice para
   1.00000000000000     
     4.1569219381653042    2.3999999999999995    0.0000000000000000
    -4.1569219381653042    2.3999999999999995    0.0000000000000000
     0.0000000000000000    0.0000000000000000   15.0000000000000000
   B    C 
     4    11
Direct
  0.0045141010405634  0.0029804620985362  0.0965464011503648
  0.3595602728286282  0.0030039467989735  0.1021437595341950
  0.0045388189482373  0.3580327856153119  0.1021457897780757
  0.6495333791448041  0.6479993478595839  0.1021518013222937
  0.3285743884001682  0.3270398917241272  0.1013998021548764
  0.6805336780019565  0.0030041971341612  0.1014182356862563
  0.0045397749807308  0.6790089141765674  0.1014217365087830
  0.1663389785947538  0.3331242759313727  0.3380277375949612
  0.3330147665603040  0.1664418325106122  0.3380298812690511
  0.1663735253993906  0.8331528836279336  0.3380332406715204
  0.3330147852266653  0.6664597783155767  0.3379193557129239
  0.6663481018376802  0.3331247592347490  0.3379190974518628
  0.8330431623767802  0.1664814303625546  0.3380327623273581
  0.6663553190696336  0.8331145198558858  0.3380286084203008
  0.8330109475897093  0.6664649747540660  0.3380277904172039
 
  0.00000000E+00  0.00000000E+00  0.00000000E+00
  0.00000000E+00  0.00000000E+00  0.00000000E+00
  0.00000000E+00  0.00000000E+00  0.00000000E+00
  0.00000000E+00  0.00000000E+00  0.00000000E+00
  0.00000000E+00  0.00000000E+00  0.00000000E+00
  0.00000000E+00  0.00000000E+00  0.00000000E+00
  0.00000000E+00  0.00000000E+00  0.00000000E+00
  0.00000000E+00  0.00000000E+00  0.00000000E+00
  0.00000000E+00  0.00000000E+00  0.00000000E+00
  0.00000000E+00  0.00000000E+00  0.00000000E+00
  0.00000000E+00  0.00000000E+00  0.00000000E+00
  0.00000000E+00  0.00000000E+00  0.00000000E+00
  0.00000000E+00  0.00000000E+00  0.00000000E+00
  0.00000000E+00  0.00000000E+00  0.00000000E+00
  0.00000000E+00  0.00000000E+00  0.00000000E+00
