Graphene-B4C3 Bridge with lattice parame
   1.00000000000000     
     4.2054193607772321    2.4279999999999990    0.0000000000000000
    -4.2054193607772321    2.4279999999999990    0.0000000000000000
     0.0000000000000000    0.0000000000000000   15.0000000000000000
   B    C 
     4    11
Direct
  0.0278742258879066 -0.0199153734109325  0.1035496239218396
  0.3831877562264430 -0.0193133696156744  0.1025765468275078
  0.0274581756436285  0.3350071118108972  0.1026093056822644
  0.6727122850149200  0.6251085202287572  0.1026108054238686
  0.3513155238045126  0.3036090571357171  0.1025838249658746
  0.7045081025062955 -0.0194171232417239  0.1026499768934595
  0.0276349751846835  0.6565930342136059  0.1026263083869470
  0.0627087885621890  0.4363831976766729  0.3356937680107039
  0.2293413549851693  0.2697661812551303  0.3359447183966054
  0.0626887477368416  0.9364033512763466  0.3357509888132568
  0.2294042128589766  0.7697438502067785  0.3357748105406236
  0.5626341979765705  0.4363968677899833  0.3357176932714440
  0.7293029045904541  0.2697243923036688  0.3356661955858166
  0.5625974382596955  0.9363296647564495  0.3358094467883066
  0.7292586440950362  0.7696813042810201  0.3358153198248173
 
  0.00000000E+00  0.00000000E+00  0.00000000E+00
  0.00000000E+00  0.00000000E+00  0.00000000E+00
  0.00000000E+00  0.00000000E+00  0.00000000E+00
  0.00000000E+00  0.00000000E+00  0.00000000E+00
  0.00000000E+00  0.00000000E+00  0.00000000E+00
  0.00000000E+00  0.00000000E+00  0.00000000E+00
  0.00000000E+00  0.00000000E+00  0.00000000E+00
  0.00000000E+00  0.00000000E+00  0.00000000E+00
  0.00000000E+00  0.00000000E+00  0.00000000E+00
  0.00000000E+00  0.00000000E+00  0.00000000E+00
  0.00000000E+00  0.00000000E+00  0.00000000E+00
  0.00000000E+00  0.00000000E+00  0.00000000E+00
  0.00000000E+00  0.00000000E+00  0.00000000E+00
  0.00000000E+00  0.00000000E+00  0.00000000E+00
  0.00000000E+00  0.00000000E+00  0.00000000E+00
