Graphene-Borophene Hollow 2 with lattice
   1.00000000000000     
     4.3180026632692110    2.4929999999999999    0.0000000000000000
    -4.3180026632692110    2.4929999999999999    0.0000000000000000
     0.0000000000000000    0.0000000000000000   15.0000000000000000
   B    C 
     8     8
Direct
  0.6694975720108417 -0.0000500533352883  0.1669141247529623
  0.3304513746538726 -0.0000500533352883  0.1669141247529623
  0.0000500533352883  0.3305014279891609  0.1669141247529623
  0.0000500533352883  0.6695476253461300  0.1669141247529623
  0.3304513746538726  0.3305014279891609  0.1669141247529623
  0.6694975720108417  0.6695476253461300  0.1669141247529623
  0.6666659999999993  0.3333330000000032  0.1621293942133621
  0.3333330000000032  0.6666659999999993  0.1722729290714949
  0.3333502728201034  0.1666751364100588  0.4036010063629517
  0.5000215413329147  0.0000430826658299  0.4036716664970185
  0.3333326666666636  0.6666663333333389  0.4036104523481326
  0.5000215413329147  0.4999774586670877  0.4036716664970185
  0.8333238635899438  0.1666751364100588  0.4036010063629517
  0.9999996666666675  0.9999993333333350  0.4034844572693163
  0.8333238635899438  0.6666487271798995  0.4036010063629517
 -0.0000440826658271  0.4999774586670877  0.4036716664970185
 
  0.00000000E+00  0.00000000E+00  0.00000000E+00
  0.00000000E+00  0.00000000E+00  0.00000000E+00
  0.00000000E+00  0.00000000E+00  0.00000000E+00
  0.00000000E+00  0.00000000E+00  0.00000000E+00
  0.00000000E+00  0.00000000E+00  0.00000000E+00
  0.00000000E+00  0.00000000E+00  0.00000000E+00
  0.00000000E+00  0.00000000E+00  0.00000000E+00
  0.00000000E+00  0.00000000E+00  0.00000000E+00
  0.00000000E+00  0.00000000E+00  0.00000000E+00
  0.00000000E+00  0.00000000E+00  0.00000000E+00
  0.00000000E+00  0.00000000E+00  0.00000000E+00
  0.00000000E+00  0.00000000E+00  0.00000000E+00
  0.00000000E+00  0.00000000E+00  0.00000000E+00
  0.00000000E+00  0.00000000E+00  0.00000000E+00
  0.00000000E+00  0.00000000E+00  0.00000000E+00
  0.00000000E+00  0.00000000E+00  0.00000000E+00
