Graphene-BC3 Hollow with lattice paramet
   1.00000000000000     
     4.3699641874962758    2.5229999999999992    0.0000000000000000
    -4.3699641874962758    2.5229999999999992    0.0000000000000000
     0.0000000000000000    0.0000000000000000   15.0000000000000000
   B    C 
     2    14
Direct
  0.3383141389217121  0.6691561677369897  0.1003358205570578
  0.6716512332398081  0.3358250077528746  0.0999791730481694
  0.1645953032834749  0.3217098660354410  0.1000319802389285
  0.3241243099288609  0.1620603831226775  0.1000283993701571
  0.1645921784087649  0.8428805740992114  0.1000320342727945
  0.8454048032832988  0.1620611542838955  0.1000224108394769
  0.6857583134110825  0.8428785458695170  0.1000263104842244
  0.8454030348333355  0.6833449156736090  0.1000223354257923
  0.3333770869047480  0.1666878939548879  0.3255242821478526
  0.5000557737932075  0.0000955690781440  0.3254945632337592
  0.3333535937409107  0.6666761494796450  0.3252283798277581
  0.5000557587277955  0.4999620572349274  0.3254945616351582
  0.8333471595771155  0.1666894867655025  0.3255196381318011
  0.0000167800481619  0.0000092985509048  0.3255120923223236
  0.8333471134213926  0.6666563003074292  0.3255196600974780
  0.9999287518096648  0.4999652967210383  0.3254950250339408
 
  0.00000000E+00  0.00000000E+00  0.00000000E+00
  0.00000000E+00  0.00000000E+00  0.00000000E+00
  0.00000000E+00  0.00000000E+00  0.00000000E+00
  0.00000000E+00  0.00000000E+00  0.00000000E+00
  0.00000000E+00  0.00000000E+00  0.00000000E+00
  0.00000000E+00  0.00000000E+00  0.00000000E+00
  0.00000000E+00  0.00000000E+00  0.00000000E+00
  0.00000000E+00  0.00000000E+00  0.00000000E+00
  0.00000000E+00  0.00000000E+00  0.00000000E+00
  0.00000000E+00  0.00000000E+00  0.00000000E+00
  0.00000000E+00  0.00000000E+00  0.00000000E+00
  0.00000000E+00  0.00000000E+00  0.00000000E+00
  0.00000000E+00  0.00000000E+00  0.00000000E+00
  0.00000000E+00  0.00000000E+00  0.00000000E+00
  0.00000000E+00  0.00000000E+00  0.00000000E+00
  0.00000000E+00  0.00000000E+00  0.00000000E+00
