Graphene-B4C3 Hollow 1 with lattice para
   1.00000000000000     
     4.1915629543166810    2.4199999999999990    0.0000000000000000
    -4.1915629543166810    2.4199999999999990    0.0000000000000000
     0.0000000000000000    0.0000000000000000   15.0000000000000000
   B    C 
     4    11
Direct
  0.0528483777838756 -0.0400776212909105  0.0999815619767855
  0.4072093236718829 -0.0399551950037989  0.1003280750472743
  0.0521134213776674  0.3148875922245338  0.1001291995784343
  0.6968565601786957  0.6042607314444221  0.1002347596773244
  0.3761253772164055  0.2836871634246425  0.1005263239363344
  0.7281728875164928 -0.0405383895559677  0.1007956688003593
  0.0530370788449963  0.6359166334038114  0.1005661716834490
  0.0688596640577684  0.4264597257382237  0.3384177310199296
  0.2356979050444402  0.2604147079158036  0.3388796737482746
  0.0690432441668861  0.9262391866967311  0.3384622291013989
  0.2358559897585126  0.7598699189419614  0.3388912097874355
  0.5691948204834126  0.4262624338389858  0.3385491825526774
  0.7355366212328683  0.2597814861147917  0.3387120181209336
  0.5690124412979700  0.9267362507185514  0.3385011452644285
  0.7352858429236754  0.7599338198326867  0.3388043830382823
 
  0.00000000E+00  0.00000000E+00  0.00000000E+00
  0.00000000E+00  0.00000000E+00  0.00000000E+00
  0.00000000E+00  0.00000000E+00  0.00000000E+00
  0.00000000E+00  0.00000000E+00  0.00000000E+00
  0.00000000E+00  0.00000000E+00  0.00000000E+00
  0.00000000E+00  0.00000000E+00  0.00000000E+00
  0.00000000E+00  0.00000000E+00  0.00000000E+00
  0.00000000E+00  0.00000000E+00  0.00000000E+00
  0.00000000E+00  0.00000000E+00  0.00000000E+00
  0.00000000E+00  0.00000000E+00  0.00000000E+00
  0.00000000E+00  0.00000000E+00  0.00000000E+00
  0.00000000E+00  0.00000000E+00  0.00000000E+00
  0.00000000E+00  0.00000000E+00  0.00000000E+00
  0.00000000E+00  0.00000000E+00  0.00000000E+00
  0.00000000E+00  0.00000000E+00  0.00000000E+00
