Graphene-B4C3 Hollow 1 with lattice para
   1.00000000000000     
     4.1872328272977608    2.4175000000000000    0.0000000000000000
    -4.1872328272977608    2.4175000000000000    0.0000000000000000
     0.0000000000000000    0.0000000000000000   15.0000000000000000
   B    C 
     4    11
Direct
  0.0307676802486541 -0.0212008726926247  0.0996158307518977
  0.3866202715625283 -0.0207972108449144  0.1018419248783954
  0.0307696355122691  0.3341392817223517  0.1019015874475423
  0.6754341386142686  0.6235489487283101  0.1018746983165897
  0.3542997490400174  0.3025052177535622  0.1016257359911180
  0.7069974030333538 -0.0208043838701045  0.1008363105517397
  0.0306636109702306  0.6556085994813736  0.1016563581653921
  0.0876882304036548  0.4097165872405525  0.3376976334151029
  0.2544551171649725  0.2429310774869403  0.3380578473743757
  0.0879572589596869  0.9098816851007412  0.3377510736493928
  0.2547312964115456  0.7430001761229520  0.3377761132520465
  0.5879147007000287  0.4096654450644080  0.3376332216117767
  0.7545695459211529  0.2430876272352243  0.3378016480856837
  0.5876653414209129  0.9096504810929502  0.3378414867287981
  0.7543155755922711  0.7429457848227445  0.3378678631134697
 
  0.00000000E+00  0.00000000E+00  0.00000000E+00
  0.00000000E+00  0.00000000E+00  0.00000000E+00
  0.00000000E+00  0.00000000E+00  0.00000000E+00
  0.00000000E+00  0.00000000E+00  0.00000000E+00
  0.00000000E+00  0.00000000E+00  0.00000000E+00
  0.00000000E+00  0.00000000E+00  0.00000000E+00
  0.00000000E+00  0.00000000E+00  0.00000000E+00
  0.00000000E+00  0.00000000E+00  0.00000000E+00
  0.00000000E+00  0.00000000E+00  0.00000000E+00
  0.00000000E+00  0.00000000E+00  0.00000000E+00
  0.00000000E+00  0.00000000E+00  0.00000000E+00
  0.00000000E+00  0.00000000E+00  0.00000000E+00
  0.00000000E+00  0.00000000E+00  0.00000000E+00
  0.00000000E+00  0.00000000E+00  0.00000000E+00
  0.00000000E+00  0.00000000E+00  0.00000000E+00
