Graphene-B4C3 Hollow 1 with lattice para
   1.00000000000000     
     4.2158116656226472    2.4340000000000002    0.0000000000000000
    -4.2158116656226472    2.4340000000000002    0.0000000000000000
     0.0000000000000000    0.0000000000000000   15.0000000000000000
   B    C 
     4    11
Direct
  0.0218008483133902 -0.0132167122784938  0.1025551990233642
  0.3768640719059581 -0.0132302103046112  0.1014614372603146
  0.0216199847028960  0.3413743288773307  0.1015665670259786
  0.6672609803908603  0.6320581175019403  0.1015345619985381
  0.3454765183811805  0.3099829534083289  0.1013636879590687
  0.6989694067477414 -0.0128797772523654  0.1018359554635404
  0.0224386398298528  0.6634066849893189  0.1013962272835802
  0.0955034631839573  0.4028688149965327  0.3374315966784780
  0.2621659781464214  0.2362296947271926  0.3375853211843927
  0.0955065245232327  0.9029133540938502  0.3374536685111307
  0.2621910362098773  0.7362637238835043  0.3375564617725478
  0.5954164412109517  0.4028507538305992  0.3374681315825367
  0.7621109139852223  0.2362184307733994  0.3375197663079803
  0.5954148918552039  0.9028331641464263  0.3375168685711699
  0.7621098561688044  0.7362051230515141  0.3375338827106998
 
  0.00000000E+00  0.00000000E+00  0.00000000E+00
  0.00000000E+00  0.00000000E+00  0.00000000E+00
  0.00000000E+00  0.00000000E+00  0.00000000E+00
  0.00000000E+00  0.00000000E+00  0.00000000E+00
  0.00000000E+00  0.00000000E+00  0.00000000E+00
  0.00000000E+00  0.00000000E+00  0.00000000E+00
  0.00000000E+00  0.00000000E+00  0.00000000E+00
  0.00000000E+00  0.00000000E+00  0.00000000E+00
  0.00000000E+00  0.00000000E+00  0.00000000E+00
  0.00000000E+00  0.00000000E+00  0.00000000E+00
  0.00000000E+00  0.00000000E+00  0.00000000E+00
  0.00000000E+00  0.00000000E+00  0.00000000E+00
  0.00000000E+00  0.00000000E+00  0.00000000E+00
  0.00000000E+00  0.00000000E+00  0.00000000E+00
  0.00000000E+00  0.00000000E+00  0.00000000E+00
