Graphene-B4C3 Hollow 2 with lattice para
   1.00000000000000     
     4.2028212845658803    2.4264999999999999    0.0000000000000000
    -4.2028212845658803    2.4264999999999999    0.0000000000000000
     0.0000000000000000    0.0000000000000000   15.0000000000000000
   B    C 
     4    11
Direct
  0.0044073967695907  0.0029277819336965  0.0997282584916460
  0.3595535435861537  0.0029330986220413  0.1009673274523976
  0.0044166305682852  0.3580733552867944  0.1009696583810603
  0.6492682365355771  0.6477845733948712  0.1009764201808116
  0.3280205797527089  0.3265371923181902  0.1007641592083086
  0.6808078480933621  0.0029331696739150  0.1007616349352304
  0.0044157945703727  0.6793244324237434  0.1007616715092081
  0.1664482021430781  0.3331940624059479  0.3383155882235680
  0.3331292387454213  0.1665114364515212  0.3383173655205954
  0.1664867219215204  0.8332190299657232  0.3383193102598113
  0.3331311851324186  0.6665325383597188  0.3382087591974025
  0.6664669955489210  0.3331958645496975  0.3382087674705729
  0.8331535221586879  0.1665505824487599  0.3383186583027888
  0.6664705142738309  0.8331817028561568  0.3383147659855066
  0.8331175902000780  0.6665351793092338  0.3383136548811185
 
  0.00000000E+00  0.00000000E+00  0.00000000E+00
  0.00000000E+00  0.00000000E+00  0.00000000E+00
  0.00000000E+00  0.00000000E+00  0.00000000E+00
  0.00000000E+00  0.00000000E+00  0.00000000E+00
  0.00000000E+00  0.00000000E+00  0.00000000E+00
  0.00000000E+00  0.00000000E+00  0.00000000E+00
  0.00000000E+00  0.00000000E+00  0.00000000E+00
  0.00000000E+00  0.00000000E+00  0.00000000E+00
  0.00000000E+00  0.00000000E+00  0.00000000E+00
  0.00000000E+00  0.00000000E+00  0.00000000E+00
  0.00000000E+00  0.00000000E+00  0.00000000E+00
  0.00000000E+00  0.00000000E+00  0.00000000E+00
  0.00000000E+00  0.00000000E+00  0.00000000E+00
  0.00000000E+00  0.00000000E+00  0.00000000E+00
  0.00000000E+00  0.00000000E+00  0.00000000E+00
