Graphene-BC3 Bridge with lattice paramet
   1.00000000000000     
     4.3517776540168045    2.5125000000000002    0.0000000000000000
    -4.3517776540168045    2.5125000000000002    0.0000000000000000
     0.0000000000000000    0.0000000000000000   15.0000000000000000
   B    C 
     2    14
Direct
  0.3112152044805846  0.6977327791124770  0.1009567733401949
  0.6446158854645413  0.3643556916453498  0.1006356926007470
  0.1377226422018211  0.3505966121992684  0.1005125885344293
  0.2973202511036788  0.1908542498901128  0.1008250466959090
  0.1375980386074736  0.8713925927795442  0.1009773835104472
  0.8181570340512807  0.1907403881488522  0.1003392177862727
  0.6583665676737805  0.8712615931517174  0.1005183762047411
  0.8181033185558017  0.7116382866897962  0.1008282470507979
  0.2771178913511861  0.2214146886490429  0.3257047397803441
  0.4437852789444652  0.0548297891389285  0.3256613677216601
  0.2770977946528660  0.7214420784138689  0.3254232081932284
  0.4438194390658335  0.5547150881746691  0.3256269391573158
  0.7771140585107680  0.2214252944261796  0.3256412120810997
  0.9437893739736800  0.0547502907581992  0.3256558718202433
  0.7771257130739616  0.7214230036619328  0.3257021137710085
  0.9437101749549806  0.5547529064933850  0.3256578884182187
 
  0.00000000E+00  0.00000000E+00  0.00000000E+00
  0.00000000E+00  0.00000000E+00  0.00000000E+00
  0.00000000E+00  0.00000000E+00  0.00000000E+00
  0.00000000E+00  0.00000000E+00  0.00000000E+00
  0.00000000E+00  0.00000000E+00  0.00000000E+00
  0.00000000E+00  0.00000000E+00  0.00000000E+00
  0.00000000E+00  0.00000000E+00  0.00000000E+00
  0.00000000E+00  0.00000000E+00  0.00000000E+00
  0.00000000E+00  0.00000000E+00  0.00000000E+00
  0.00000000E+00  0.00000000E+00  0.00000000E+00
  0.00000000E+00  0.00000000E+00  0.00000000E+00
  0.00000000E+00  0.00000000E+00  0.00000000E+00
  0.00000000E+00  0.00000000E+00  0.00000000E+00
  0.00000000E+00  0.00000000E+00  0.00000000E+00
  0.00000000E+00  0.00000000E+00  0.00000000E+00
  0.00000000E+00  0.00000000E+00  0.00000000E+00
