Graphene-B4C3 Hollow 1 with lattice para
   1.00000000000000     
     4.1941610305280363    2.4215000000000000    0.0000000000000000
    -4.1941610305280363    2.4215000000000000    0.0000000000000000
     0.0000000000000000    0.0000000000000000   15.0000000000000000
   B    C 
     4    11
Direct
  0.0070321979956137  0.0002079055587388  0.0998008877079890
  0.3621788727687175  0.0001317424703960  0.1016086065037310
  0.0070476042516117  0.3552953084476099  0.1016191079901746
  0.6520183456464392  0.6449815646411358  0.1016159932207867
  0.3308941755026802  0.3237255796221813  0.1012494372245060
  0.6835293358017493  0.0003101400722098  0.1013065957109554
  0.0071543994518984  0.6764741978607287  0.1012748224319460
  0.1084999436920825  0.3911612784666738  0.3378813077121589
  0.2752123164729114  0.2245310242173295  0.3380095416813502
  0.1085571323329253  0.8911683109257348  0.3379245313896437
  0.2752661992665449  0.7245375396715484  0.3378463006914152
  0.6085570020535296  0.3911522827612661  0.3378335988624331
  0.7752057221090944  0.2244838181305785  0.3379101581914014
  0.6085382201118738  0.8911905569334525  0.3379936345227625
  0.7751580880978777  0.7245271946648836  0.3379048094920667
 
  0.00000000E+00  0.00000000E+00  0.00000000E+00
  0.00000000E+00  0.00000000E+00  0.00000000E+00
  0.00000000E+00  0.00000000E+00  0.00000000E+00
  0.00000000E+00  0.00000000E+00  0.00000000E+00
  0.00000000E+00  0.00000000E+00  0.00000000E+00
  0.00000000E+00  0.00000000E+00  0.00000000E+00
  0.00000000E+00  0.00000000E+00  0.00000000E+00
  0.00000000E+00  0.00000000E+00  0.00000000E+00
  0.00000000E+00  0.00000000E+00  0.00000000E+00
  0.00000000E+00  0.00000000E+00  0.00000000E+00
  0.00000000E+00  0.00000000E+00  0.00000000E+00
  0.00000000E+00  0.00000000E+00  0.00000000E+00
  0.00000000E+00  0.00000000E+00  0.00000000E+00
  0.00000000E+00  0.00000000E+00  0.00000000E+00
  0.00000000E+00  0.00000000E+00  0.00000000E+00
