Graphene-Borophene Hollow 2 with lattice
   1.00000000000000     
     4.3084763838275819    2.4874999999999998    0.0000000000000000
    -4.3084763838275819    2.4874999999999998    0.0000000000000000
     0.0000000000000000    0.0000000000000000   15.0000000000000000
   B    C 
     8     8
Direct
  0.6695265430374510 -0.0000648789711885  0.1671887258890952
  0.3304075779913627 -0.0000648789711885  0.1671887258890952
  0.0000648789711885  0.3304724569625512  0.1671887258890952
  0.0000648789711885  0.6695914220086396  0.1671887258890952
  0.3304075779913627  0.3304724569625512  0.1671887258890952
  0.6695265430374510  0.6695914220086396  0.1671887258890952
  0.6666659999999993  0.3333330000000032  0.1610167299386587
  0.3333330000000032  0.6666659999999993  0.1742083000096951
  0.3333552996504322  0.1666776498252232  0.4032825597561154
  0.5000240441009471  0.0000480882018945  0.4033760969133920
  0.3333326666666636  0.6666663333333389  0.4033255603170200
  0.5000240441009471  0.4999749558990554  0.4033760969133920
  0.8333213501747794  0.1666776498252232  0.4032825597561154
  0.9999996666666675  0.9999993333333350  0.4031410843915240
  0.8333213501747794  0.6666437003495705  0.4032825597561154
 -0.0000490882018921  0.4999749558990554  0.4033760969133920
 
  0.00000000E+00  0.00000000E+00  0.00000000E+00
  0.00000000E+00  0.00000000E+00  0.00000000E+00
  0.00000000E+00  0.00000000E+00  0.00000000E+00
  0.00000000E+00  0.00000000E+00  0.00000000E+00
  0.00000000E+00  0.00000000E+00  0.00000000E+00
  0.00000000E+00  0.00000000E+00  0.00000000E+00
  0.00000000E+00  0.00000000E+00  0.00000000E+00
  0.00000000E+00  0.00000000E+00  0.00000000E+00
  0.00000000E+00  0.00000000E+00  0.00000000E+00
  0.00000000E+00  0.00000000E+00  0.00000000E+00
  0.00000000E+00  0.00000000E+00  0.00000000E+00
  0.00000000E+00  0.00000000E+00  0.00000000E+00
  0.00000000E+00  0.00000000E+00  0.00000000E+00
  0.00000000E+00  0.00000000E+00  0.00000000E+00
  0.00000000E+00  0.00000000E+00  0.00000000E+00
  0.00000000E+00  0.00000000E+00  0.00000000E+00
