Graphene-B4C3 Top with lattice parameter
   1.00000000000000     
     4.2114815386037252    2.4315000000000002    0.0000000000000000
    -4.2114815386037252    2.4315000000000002    0.0000000000000000
     0.0000000000000000    0.0000000000000000   15.0000000000000000
   B    C 
     4    11
Direct
  0.0040562695764112  0.0026957913755079  0.1008857501667814
  0.3592429093221934  0.0030006170067965  0.1004141192070072
  0.0037477215644010  0.3575781802108104  0.1004148120084832
  0.6491729621630452  0.6475108555427500  0.1004113214978032
  0.3276335011714994  0.3259720194100447  0.1003967755124024
  0.6807788304900136  0.0029971563977421  0.1003963955045719
  0.0037501655439071  0.6791161231126080  0.1003935226091552
  0.0001328757816549  0.5000618970739981  0.3350280041345156
  0.1667814969863056  0.3334485245878944  0.3350630284935142
  0.0001137031263613  0.0000695813341630  0.3349913329807501
  0.1668248850459514  0.8334035201787847  0.3350668024003997
  0.5001241090455062  0.5000999563476843  0.3350306817813012
  0.6667809923568647  0.3334046446401694  0.3349306285080632
  0.5000841674201585  0.0000503863854675  0.3350263758081279
  0.6667360770724194  0.8333580797289036  0.3350631160538066
 
  0.00000000E+00  0.00000000E+00  0.00000000E+00
  0.00000000E+00  0.00000000E+00  0.00000000E+00
  0.00000000E+00  0.00000000E+00  0.00000000E+00
  0.00000000E+00  0.00000000E+00  0.00000000E+00
  0.00000000E+00  0.00000000E+00  0.00000000E+00
  0.00000000E+00  0.00000000E+00  0.00000000E+00
  0.00000000E+00  0.00000000E+00  0.00000000E+00
  0.00000000E+00  0.00000000E+00  0.00000000E+00
  0.00000000E+00  0.00000000E+00  0.00000000E+00
  0.00000000E+00  0.00000000E+00  0.00000000E+00
  0.00000000E+00  0.00000000E+00  0.00000000E+00
  0.00000000E+00  0.00000000E+00  0.00000000E+00
  0.00000000E+00  0.00000000E+00  0.00000000E+00
  0.00000000E+00  0.00000000E+00  0.00000000E+00
  0.00000000E+00  0.00000000E+00  0.00000000E+00
