Graphene-B4C3 Hollow 1 with lattice para
   1.00000000000000     
     4.2348642245059045    2.4449999999999998    0.0000000000000000
    -4.2348642245059045    2.4449999999999998    0.0000000000000000
     0.0000000000000000    0.0000000000000000   15.0000000000000000
   B    C 
     4    11
Direct
  0.0390297119234030 -0.0283233300334299  0.1055028690806675
  0.3943099983216540 -0.0281645677791924  0.1005389308231635
  0.0389252915398869  0.3267660772833056  0.1006287049902363
  0.6841914479060976  0.6163903211471382  0.1006031919383319
  0.3623268337447439  0.2946258996774358  0.1011821122382014
  0.7161993680193963 -0.0282152053759841  0.1011423177852902
  0.0389446478102170  0.6486024268516051  0.1012186604015614
  0.0804997874192227  0.4160488212452145  0.3375954558124472
  0.2472666916094036  0.2495273701756743  0.3376899023003610
  0.0805238754509428  0.9161468804794605  0.3376005262210736
  0.2472775517090450  0.7494409130759498  0.3376224345629739
  0.5805307229234953  0.4160922614504213  0.3376167656379401
  0.7471776845905698  0.2494544825286008  0.3375524683142152
  0.5805374738135448  0.9161293319136705  0.3376684648453858
  0.7471084687739287  0.7493567618045986  0.3376165283814730
 
  0.00000000E+00  0.00000000E+00  0.00000000E+00
  0.00000000E+00  0.00000000E+00  0.00000000E+00
  0.00000000E+00  0.00000000E+00  0.00000000E+00
  0.00000000E+00  0.00000000E+00  0.00000000E+00
  0.00000000E+00  0.00000000E+00  0.00000000E+00
  0.00000000E+00  0.00000000E+00  0.00000000E+00
  0.00000000E+00  0.00000000E+00  0.00000000E+00
  0.00000000E+00  0.00000000E+00  0.00000000E+00
  0.00000000E+00  0.00000000E+00  0.00000000E+00
  0.00000000E+00  0.00000000E+00  0.00000000E+00
  0.00000000E+00  0.00000000E+00  0.00000000E+00
  0.00000000E+00  0.00000000E+00  0.00000000E+00
  0.00000000E+00  0.00000000E+00  0.00000000E+00
  0.00000000E+00  0.00000000E+00  0.00000000E+00
  0.00000000E+00  0.00000000E+00  0.00000000E+00
