Graphene-B4C3 Top with lattice parameter
   1.00000000000000     
     4.2088834623923699    2.4299999999999988    0.0000000000000000
    -4.2088834623923699    2.4299999999999988    0.0000000000000000
     0.0000000000000000    0.0000000000000000   15.0000000000000000
   B    C 
     4    11
Direct
  0.0040435596129846  0.0026901450673088  0.1009225192665873
  0.3592270979810588  0.0029894779000417  0.1004394433320951
  0.0037369214005431  0.3575691707879878  0.1004407199951259
  0.6491559263487638  0.6475019855656517  0.1004360004928092
  0.3276435343728660  0.3259917423740233  0.1004216587716875
  0.6807343507447526  0.0029842063603309  0.1004244228143099
  0.0037385901084465  0.6790800515933146  0.1004222910589274
  0.0001453321122833  0.5000693590674926  0.3350058398668040
  0.1667945525546922  0.3334583814340890  0.3350369074488217
  0.0001273310668942  0.0000777447600100  0.3349658255183209
  0.1668378371408904  0.8334103597295394  0.3350410608259699
  0.5001380862797972  0.5001076363865263  0.3350084848069958
  0.6667929881775423  0.3334125696838033  0.3349056319825059
  0.5000982614753665  0.0000594952492255  0.3350045348681882
  0.6667462972898126  0.8333650073739814  0.3350373256175334
 
  0.00000000E+00  0.00000000E+00  0.00000000E+00
  0.00000000E+00  0.00000000E+00  0.00000000E+00
  0.00000000E+00  0.00000000E+00  0.00000000E+00
  0.00000000E+00  0.00000000E+00  0.00000000E+00
  0.00000000E+00  0.00000000E+00  0.00000000E+00
  0.00000000E+00  0.00000000E+00  0.00000000E+00
  0.00000000E+00  0.00000000E+00  0.00000000E+00
  0.00000000E+00  0.00000000E+00  0.00000000E+00
  0.00000000E+00  0.00000000E+00  0.00000000E+00
  0.00000000E+00  0.00000000E+00  0.00000000E+00
  0.00000000E+00  0.00000000E+00  0.00000000E+00
  0.00000000E+00  0.00000000E+00  0.00000000E+00
  0.00000000E+00  0.00000000E+00  0.00000000E+00
  0.00000000E+00  0.00000000E+00  0.00000000E+00
  0.00000000E+00  0.00000000E+00  0.00000000E+00
