B4C3 with lattice parameter 4.690       
   1.00000000000000     
     4.0616589999999997    2.3450000000000002    0.0000000000000000
    -4.0616589999999997    2.3450000000000002    0.0000000000000000
     0.0000000000000000    0.0000000000000000   15.0000000000000000
   B    C 
     4     3
Direct
  0.0041620079966755  0.0026995319041882  0.1203324066178198
  0.3569586087205541  0.0028329484018703  0.0974924079864339
  0.0042113137504174  0.3555134865763232  0.0974972032439837
  0.6514138106244107  0.6500464258630091  0.0974770401275053
  0.3280864809139888  0.3266999581376476  0.1003043991843211
  0.6802824253244087  0.0027990872777878  0.1002758951405969
  0.0041833526695413  0.6788465618391750  0.1002666476993506
 
  0.00000000E+00  0.00000000E+00  0.00000000E+00
  0.00000000E+00  0.00000000E+00  0.00000000E+00
  0.00000000E+00  0.00000000E+00  0.00000000E+00
  0.00000000E+00  0.00000000E+00  0.00000000E+00
  0.00000000E+00  0.00000000E+00  0.00000000E+00
  0.00000000E+00  0.00000000E+00  0.00000000E+00
  0.00000000E+00  0.00000000E+00  0.00000000E+00
