Graphene-B4C3 Top with lattice parameter
   1.00000000000000     
     4.1979287296712888    2.4212988399032698    0.0055126933806176
    -4.1984113956891695    2.4221343338238941    0.0011403864568444
     0.0079951805276249    0.0211191643131809   12.3989181042301002
   B    C 
     4    11
Direct
  0.0036542377740014  0.0024991867237446  0.0790826988677643
  0.3592444009524751  0.0027265463684832  0.0802357735440154
  0.0032614522716981  0.3577078442674205  0.0802369898583256
  0.6482536115913966  0.6467431945602792  0.0802312713866734
  0.3273168541497959  0.3258080107485557  0.0799681269590131
  0.6803540000373103  0.0027866086078431  0.0799930282460505
  0.0033971814991518  0.6789098955449488  0.0800010984765418
  0.0005815424585975  0.5002673039277595  0.3592816533261654
  0.1670218512730979  0.3336273636148861  0.3592388085012124
  0.0005835923962564  0.0002824001078525  0.3592661860895618
  0.1670536449496174  0.8336214554809143  0.3592394800335694
  0.5005996339526764  0.5002896963948109  0.3592794662412382
  0.6670376616116189  0.3336182759255608  0.3590702187825696
  0.5005795646146888  0.0002833698022497  0.3592817751773741
  0.6670214371343113  0.8335961812580174  0.3592394245099577
 
  0.00000000E+00  0.00000000E+00  0.00000000E+00
  0.00000000E+00  0.00000000E+00  0.00000000E+00
  0.00000000E+00  0.00000000E+00  0.00000000E+00
  0.00000000E+00  0.00000000E+00  0.00000000E+00
  0.00000000E+00  0.00000000E+00  0.00000000E+00
  0.00000000E+00  0.00000000E+00  0.00000000E+00
  0.00000000E+00  0.00000000E+00  0.00000000E+00
  0.00000000E+00  0.00000000E+00  0.00000000E+00
  0.00000000E+00  0.00000000E+00  0.00000000E+00
  0.00000000E+00  0.00000000E+00  0.00000000E+00
  0.00000000E+00  0.00000000E+00  0.00000000E+00
  0.00000000E+00  0.00000000E+00  0.00000000E+00
  0.00000000E+00  0.00000000E+00  0.00000000E+00
  0.00000000E+00  0.00000000E+00  0.00000000E+00
  0.00000000E+00  0.00000000E+00  0.00000000E+00
