Graphene-BC3 Top with lattice parameter 
   1.00000000000000     
     4.3613039334584327    2.5179999999999998    0.0000000000000000
    -4.3613039334584327    2.5179999999999998    0.0000000000000000
     0.0000000000000000    0.0000000000000000   15.0000000000000000
   B    C 
     2    14
Direct
  0.3383345273843500  0.6691672478940954  0.1002367997919044
  0.6716675040593452  0.3358336232290826  0.1002367887750754
  0.1646755019485344  0.3218454729008097  0.0999130008306352
  0.3243487903902006  0.1621745121812285  0.0999120237837618
  0.1646766769651607  0.8428307336448756  0.0999129991872493
  0.8453334222656425  0.1621718230659042  0.0999145463415583
  0.6856642364809438  0.8428311531977705  0.0999151434761772
  0.8453348270672824  0.6831607953437920  0.0999145390961224
  0.1665666825638331  0.3331402997221720  0.3288810051338592
  0.3331377946689180  0.1665686965868106  0.3288821171438573
  0.1665666841193501  0.8334259792870385  0.3288810048211307
  0.3333267429878231  0.6666631724005468  0.3285827416442018
  0.6666601228348936  0.3333298592925395  0.3285827405130542
  0.8334235482466913  0.1665692495282314  0.3288786115821194
  0.6668513944915527  0.8334254953249161  0.3288773268066164
  0.8334235435254975  0.6668538864001962  0.3288786110726971
 
  0.00000000E+00  0.00000000E+00  0.00000000E+00
  0.00000000E+00  0.00000000E+00  0.00000000E+00
  0.00000000E+00  0.00000000E+00  0.00000000E+00
  0.00000000E+00  0.00000000E+00  0.00000000E+00
  0.00000000E+00  0.00000000E+00  0.00000000E+00
  0.00000000E+00  0.00000000E+00  0.00000000E+00
  0.00000000E+00  0.00000000E+00  0.00000000E+00
  0.00000000E+00  0.00000000E+00  0.00000000E+00
  0.00000000E+00  0.00000000E+00  0.00000000E+00
  0.00000000E+00  0.00000000E+00  0.00000000E+00
  0.00000000E+00  0.00000000E+00  0.00000000E+00
  0.00000000E+00  0.00000000E+00  0.00000000E+00
  0.00000000E+00  0.00000000E+00  0.00000000E+00
  0.00000000E+00  0.00000000E+00  0.00000000E+00
  0.00000000E+00  0.00000000E+00  0.00000000E+00
  0.00000000E+00  0.00000000E+00  0.00000000E+00
