Graphene-B4C3 Bridge with lattice parame
   1.00000000000000     
     4.2106155131999410    2.4310000000000000    0.0000000000000000
    -4.2106155131999410    2.4310000000000000    0.0000000000000000
     0.0000000000000000    0.0000000000000000   15.0000000000000000
   B    C 
     4    11
Direct
  0.0396526876155409 -0.0307457575925438  0.1014026582934524
  0.3947793827584848 -0.0308441017687645  0.1008917149434817
  0.0396401697479183  0.3237869596569343  0.1008804734146557
  0.6852579002800150  0.6138061856568708  0.1009067618081055
  0.3635761248653573  0.2923004732574990  0.1008379690715151
  0.7163409912490599 -0.0307428193948352  0.1010214816628079
  0.0394163973713830  0.6453051120831215  0.1008856434919505
  0.0521660978872363  0.4462099021606067  0.3372794181567642
  0.2187393216281400  0.2795382960997102  0.3374488149300515
  0.0521312514518976  0.9462321560431024  0.3373401122881244
  0.2187809103712510  0.7795602398160693  0.3373014216014095
  0.5522596880846022  0.4462644436317498  0.3373061573716986
  0.7188007884667206  0.2795726262405396  0.3371653881071053
  0.5522107407344855  0.9463019509679864  0.3373571330340924
  0.7188748808212300  0.7795549998086492  0.3373541851581209
 
  0.00000000E+00  0.00000000E+00  0.00000000E+00
  0.00000000E+00  0.00000000E+00  0.00000000E+00
  0.00000000E+00  0.00000000E+00  0.00000000E+00
  0.00000000E+00  0.00000000E+00  0.00000000E+00
  0.00000000E+00  0.00000000E+00  0.00000000E+00
  0.00000000E+00  0.00000000E+00  0.00000000E+00
  0.00000000E+00  0.00000000E+00  0.00000000E+00
  0.00000000E+00  0.00000000E+00  0.00000000E+00
  0.00000000E+00  0.00000000E+00  0.00000000E+00
  0.00000000E+00  0.00000000E+00  0.00000000E+00
  0.00000000E+00  0.00000000E+00  0.00000000E+00
  0.00000000E+00  0.00000000E+00  0.00000000E+00
  0.00000000E+00  0.00000000E+00  0.00000000E+00
  0.00000000E+00  0.00000000E+00  0.00000000E+00
  0.00000000E+00  0.00000000E+00  0.00000000E+00
