Graphene-Borophene Hollow 1 with lattice
   1.00000000000000     
     4.3387872729600359    2.5049999999999990    0.0000000000000000
    -4.3387872729600359    2.5049999999999990    0.0000000000000000
     0.0000000000000000    0.0000000000000000   15.0000000000000000
   B    C 
     8     8
Direct
  0.6708402256070372 -0.0016795524344545  0.1663202337624126
  0.3323074714092249 -0.0016193506720829  0.1665329773886682
  0.0016795524344545  0.3291587743929658  0.1663202337624126
  0.0016193506720829  0.6676915285907777  0.1665329773886682
  0.3322309013756665  0.3290853636979676  0.1665753251957856
  0.6709136363020352  0.6677680986243355  0.1665753251957856
  0.6681155397714597  0.3318834602285428  0.1658635587723889
  0.3348190952060046  0.6651799047939977  0.1673331446735807
  0.2762126952129341  0.2237957947451701  0.4030802462310715
  0.4428742650348281  0.0571187554719554  0.4031217111680173
  0.2761953246454326  0.7238036753545702  0.4030691346115469
  0.4429010558958243  0.5570979441041781  0.4031302615382539
  0.7762087986854977  0.2237902013145046  0.4031253926570409
  0.9428805268535714  0.0571184731464315  0.4030175202552881
  0.7762032052548321  0.7237863047870688  0.4030802462310715
  0.9428802445280472  0.5571247349651752  0.4031217111680173
 
  0.00000000E+00  0.00000000E+00  0.00000000E+00
  0.00000000E+00  0.00000000E+00  0.00000000E+00
  0.00000000E+00  0.00000000E+00  0.00000000E+00
  0.00000000E+00  0.00000000E+00  0.00000000E+00
  0.00000000E+00  0.00000000E+00  0.00000000E+00
  0.00000000E+00  0.00000000E+00  0.00000000E+00
  0.00000000E+00  0.00000000E+00  0.00000000E+00
  0.00000000E+00  0.00000000E+00  0.00000000E+00
  0.00000000E+00  0.00000000E+00  0.00000000E+00
  0.00000000E+00  0.00000000E+00  0.00000000E+00
  0.00000000E+00  0.00000000E+00  0.00000000E+00
  0.00000000E+00  0.00000000E+00  0.00000000E+00
  0.00000000E+00  0.00000000E+00  0.00000000E+00
  0.00000000E+00  0.00000000E+00  0.00000000E+00
  0.00000000E+00  0.00000000E+00  0.00000000E+00
  0.00000000E+00  0.00000000E+00  0.00000000E+00
