Graphene-B4C3 Hollow 1 with lattice para
   1.00000000000000     
     4.1889648781053292    2.4184999999999999    0.0000000000000000
    -4.1889648781053292    2.4184999999999999    0.0000000000000000
     0.0000000000000000    0.0000000000000000   15.0000000000000000
   B    C 
     4    11
Direct
  0.0052047392792819  0.0018272262310872  0.1010828848269252
  0.3603953352953153  0.0018022707453292  0.1014897285220663
  0.0052873616118281  0.3569730329314525  0.1016246421498989
  0.6502092844403583  0.6466199361488619  0.1015764831823423
  0.3290763580838025  0.3255063802022410  0.1014493525166982
  0.6815793145250988  0.0017804992903928  0.1014540252414625
  0.0052864794659711  0.6780713850877619  0.1014700016707596
  0.1101495246499455  0.3897422683120951  0.3376748529944106
  0.2768159879690852  0.2230720841595677  0.3377968085250722
  0.1101713149022651  0.8897747157986153  0.3377354647428915
  0.2768403437379467  0.7231017261062405  0.3376344385089661
  0.6101244302773953  0.3897275632775739  0.3376359318653156
  0.7767991541490473  0.2230728216632137  0.3376850521744515
  0.6101271627054488  0.8897296761326913  0.3377742247103616
  0.7767827644627613  0.7230768583573444  0.3376954417016987
 
  0.00000000E+00  0.00000000E+00  0.00000000E+00
  0.00000000E+00  0.00000000E+00  0.00000000E+00
  0.00000000E+00  0.00000000E+00  0.00000000E+00
  0.00000000E+00  0.00000000E+00  0.00000000E+00
  0.00000000E+00  0.00000000E+00  0.00000000E+00
  0.00000000E+00  0.00000000E+00  0.00000000E+00
  0.00000000E+00  0.00000000E+00  0.00000000E+00
  0.00000000E+00  0.00000000E+00  0.00000000E+00
  0.00000000E+00  0.00000000E+00  0.00000000E+00
  0.00000000E+00  0.00000000E+00  0.00000000E+00
  0.00000000E+00  0.00000000E+00  0.00000000E+00
  0.00000000E+00  0.00000000E+00  0.00000000E+00
  0.00000000E+00  0.00000000E+00  0.00000000E+00
  0.00000000E+00  0.00000000E+00  0.00000000E+00
  0.00000000E+00  0.00000000E+00  0.00000000E+00
