Graphene with lattice parameter 2.475   
   1.00000000000000     
     2.1434129999999998    1.2375000000000000    0.0000000000000000
    -2.1434129999999998    1.2375000000000000    0.0000000000000000
     0.0000000000000000    0.0000000000000000   15.0000000000000000
   C 
     2
Direct
  0.3333330000000032  0.6666659999999993  0.1000000000000014
  0.6666659999999993  0.3333330000000032  0.1000000000000014
 
  0.00000000E+00  0.00000000E+00  0.00000000E+00
  0.00000000E+00  0.00000000E+00  0.00000000E+00
