Graphene-B4C3 Top with lattice parameter
   1.00000000000000     
     4.2262039704680578    2.4399999999999986    0.0000000000000000
    -4.2262039704680578    2.4399999999999986    0.0000000000000000
     0.0000000000000000    0.0000000000000000   15.0000000000000000
   B    C 
     4    11
Direct
  0.0040639124481448  0.0027014901664887  0.1006146703550873
  0.3592393281564790  0.0030227005646868  0.1003064609572689
  0.0037330005613999  0.3575480852171971  0.1003069103416348
  0.6492093381950975  0.6475217577576871  0.1003047252993412
  0.3274804330955308  0.3258006857213090  0.1002663910127607
  0.6809555839027293  0.0030133915142344  0.1002706214528469
  0.0037424877525530  0.6792735658197695  0.1002689091562924
  0.0001285108322190  0.5000594099077500  0.3351499982168213
  0.1667744999948308  0.3334469113155697  0.3351830246968769
  0.0001087503918520  0.0000681149086146  0.3351150881291188
  0.1668207515798153  0.8334036450582791  0.3351869254455846
  0.5001203354309138  0.5001006710895362  0.3351525367297921
  0.6667755491959636  0.3334032347804631  0.3350546149014285
  0.5000773890813316  0.0000483103174434  0.3351485016581637
  0.6667307960478331  0.8333553591942972  0.3351832883136640
 
  0.00000000E+00  0.00000000E+00  0.00000000E+00
  0.00000000E+00  0.00000000E+00  0.00000000E+00
  0.00000000E+00  0.00000000E+00  0.00000000E+00
  0.00000000E+00  0.00000000E+00  0.00000000E+00
  0.00000000E+00  0.00000000E+00  0.00000000E+00
  0.00000000E+00  0.00000000E+00  0.00000000E+00
  0.00000000E+00  0.00000000E+00  0.00000000E+00
  0.00000000E+00  0.00000000E+00  0.00000000E+00
  0.00000000E+00  0.00000000E+00  0.00000000E+00
  0.00000000E+00  0.00000000E+00  0.00000000E+00
  0.00000000E+00  0.00000000E+00  0.00000000E+00
  0.00000000E+00  0.00000000E+00  0.00000000E+00
  0.00000000E+00  0.00000000E+00  0.00000000E+00
  0.00000000E+00  0.00000000E+00  0.00000000E+00
  0.00000000E+00  0.00000000E+00  0.00000000E+00
