Graphene-Borophene Hollow 1 with lattice
   1.00000000000000     
     4.3188686886729952    2.4935000000000000    0.0000000000000000
    -4.3188686886729952    2.4935000000000000    0.0000000000000000
     0.0000000000000000    0.0000000000000000   15.0000000000000000
   B    C 
     8     8
Direct
  0.6795891823507327 -0.0103097740615489  0.1670197032589736
  0.3410539325345710 -0.0101734757341508  0.1657474203154672
  0.0103097740615489  0.3204098176492696  0.1670197032589736
  0.0101734757341509  0.6589450674654316  0.1657474203154672
  0.3410869471681092  0.3203162432250600  0.1663904805633862
  0.6796827567749421  0.6589120528318932  0.1663904805633862
  0.6768891505924031  0.3231098494075991  0.1590697155878416
  0.3435224100697218  0.6564765899302805  0.1741060094255712
  0.2674240620561252  0.2325296626221108  0.4030614717479920
  0.4341743372857738  0.0657833475431107  0.4032921468538389
  0.2674546545566562  0.7325443454433469  0.4033391781481706
  0.4341821098812869  0.5658168901187157  0.4031997302668346
  0.7674298492183134  0.2325691507816899  0.4031912271087779
  0.9342242567698121  0.0657747432301900  0.4028716939834984
  0.7674693373778918  0.7325749379438768  0.4030614717479920
  0.9342156524568914  0.5658246627142283  0.4032921468538389
 
  0.00000000E+00  0.00000000E+00  0.00000000E+00
  0.00000000E+00  0.00000000E+00  0.00000000E+00
  0.00000000E+00  0.00000000E+00  0.00000000E+00
  0.00000000E+00  0.00000000E+00  0.00000000E+00
  0.00000000E+00  0.00000000E+00  0.00000000E+00
  0.00000000E+00  0.00000000E+00  0.00000000E+00
  0.00000000E+00  0.00000000E+00  0.00000000E+00
  0.00000000E+00  0.00000000E+00  0.00000000E+00
  0.00000000E+00  0.00000000E+00  0.00000000E+00
  0.00000000E+00  0.00000000E+00  0.00000000E+00
  0.00000000E+00  0.00000000E+00  0.00000000E+00
  0.00000000E+00  0.00000000E+00  0.00000000E+00
  0.00000000E+00  0.00000000E+00  0.00000000E+00
  0.00000000E+00  0.00000000E+00  0.00000000E+00
  0.00000000E+00  0.00000000E+00  0.00000000E+00
  0.00000000E+00  0.00000000E+00  0.00000000E+00
