Graphene-B4C3 Top with lattice parameter
   1.00000000000000     
     4.2327119957822141    2.4289389391337410    0.0034890233466369
    -4.2332540125661708    2.4298792147403923    0.0016582453533901
     0.0051381830018851    0.0202844136592315    5.9617523281919853
   B    C 
     4    11
Direct
  0.0029955748667506  0.0026551605290073 -0.0193655184231882
  0.3578934386671745  0.0001304975327505  0.0053661031432654
  0.0030948904180545  0.3584486252015999  0.0055963657953573
  0.6447154372266353  0.6441991336385945  0.0049453334750114
  0.3270839581973645  0.3229473911107577 -0.0014551439231803
  0.6829141718153672  0.0044618950066739  0.0015941744589936
 -0.0004533247618352  0.6793976666047489  0.0024127701851710
  0.0004075753849998  0.5006704572015734  0.4281849539314982
  0.1688131576047362  0.3365503294668339  0.4300676016552327
  0.0025511723041933  0.0009384323730562  0.4323754250379446
  0.1673495325943443  0.8322153225416767  0.4303796927714344
  0.5034841043345578  0.4997712971705389  0.4279481678145797
  0.6664016167703096  0.3337280432363492  0.4270416584439922
  0.5047881650588608  0.0035766540992902  0.4283142836253323
  0.6639211961851801  0.8330764276198751  0.4302401320085869
 
  0.00000000E+00  0.00000000E+00  0.00000000E+00
  0.00000000E+00  0.00000000E+00  0.00000000E+00
  0.00000000E+00  0.00000000E+00  0.00000000E+00
  0.00000000E+00  0.00000000E+00  0.00000000E+00
  0.00000000E+00  0.00000000E+00  0.00000000E+00
  0.00000000E+00  0.00000000E+00  0.00000000E+00
  0.00000000E+00  0.00000000E+00  0.00000000E+00
  0.00000000E+00  0.00000000E+00  0.00000000E+00
  0.00000000E+00  0.00000000E+00  0.00000000E+00
  0.00000000E+00  0.00000000E+00  0.00000000E+00
  0.00000000E+00  0.00000000E+00  0.00000000E+00
  0.00000000E+00  0.00000000E+00  0.00000000E+00
  0.00000000E+00  0.00000000E+00  0.00000000E+00
  0.00000000E+00  0.00000000E+00  0.00000000E+00
  0.00000000E+00  0.00000000E+00  0.00000000E+00
