Graphene-BC3 Hollow with lattice paramet
   1.00000000000000     
     4.3665000858811389    2.5209999999999995    0.0000000000000000
    -4.3665000858811389    2.5209999999999995    0.0000000000000000
     0.0000000000000000    0.0000000000000000   15.0000000000000000
   B    C 
     2    14
Direct
  0.3383443104421357  0.6691709259663803  0.1001722569845743
  0.6716930933695510  0.3358210310422775  0.0999791967333496
  0.1670231600059043  0.3265718560742135  0.0999431565528086
  0.3288016371771422  0.1644098942770395  0.1000155164864409
  0.1670535940645000  0.8404694106829702  0.0999431575426258
  0.8430615685890641  0.1643965199952566  0.1000150614318814
  0.6809246499982645  0.8404625422720510  0.0999428610460650
  0.8430864137358004  0.6786899682997514  0.1000150480282916
  0.3333769570270905  0.1666873902898466  0.3255432057141242
  0.5001265821222659  0.0002708098935740  0.3255861287659376
  0.3333289679564342  0.6666634486528966  0.3253261750757115
  0.5001265830143892  0.4998569321646591  0.3255861199014292
  0.8333197688317999  0.1666914616683784  0.3255397008997629
  0.0000049279052867  0.0000030399439219  0.3255318538149491
  0.8333198058718088  0.6666262020458256  0.3255397240742939
  0.9997333132218964  0.4998672333976525  0.3255875036144264
 
  0.00000000E+00  0.00000000E+00  0.00000000E+00
  0.00000000E+00  0.00000000E+00  0.00000000E+00
  0.00000000E+00  0.00000000E+00  0.00000000E+00
  0.00000000E+00  0.00000000E+00  0.00000000E+00
  0.00000000E+00  0.00000000E+00  0.00000000E+00
  0.00000000E+00  0.00000000E+00  0.00000000E+00
  0.00000000E+00  0.00000000E+00  0.00000000E+00
  0.00000000E+00  0.00000000E+00  0.00000000E+00
  0.00000000E+00  0.00000000E+00  0.00000000E+00
  0.00000000E+00  0.00000000E+00  0.00000000E+00
  0.00000000E+00  0.00000000E+00  0.00000000E+00
  0.00000000E+00  0.00000000E+00  0.00000000E+00
  0.00000000E+00  0.00000000E+00  0.00000000E+00
  0.00000000E+00  0.00000000E+00  0.00000000E+00
  0.00000000E+00  0.00000000E+00  0.00000000E+00
  0.00000000E+00  0.00000000E+00  0.00000000E+00
