Graphene-B4C3 Bridge with lattice parame
   1.00000000000000     
     4.1993571829507426    2.4245000000000001    0.0000000000000000
    -4.1993571829507426    2.4245000000000001    0.0000000000000000
     0.0000000000000000    0.0000000000000000   15.0000000000000000
   B    C 
     4    11
Direct
  0.0062282632340306  0.0008047253923876  0.1005696891673715
  0.3613185730131850  0.0008440646786822  0.1012832854489552
  0.0061744448283682  0.3558898301952646  0.1015855192732674
  0.6513277535640198  0.6456616169021081  0.1014902396435238
  0.3300242586829734  0.3242694519546058  0.1013113284380290
  0.6828000181979513  0.0009367270713990  0.1012077411957066
  0.0062694567907193  0.6771489700288571  0.1013320993849274
  0.0814877374680597  0.4184024243053335  0.3370212454249865
  0.2481534825026044  0.2517351371175504  0.3371912577137932
  0.0815057823180362  0.9184415759496067  0.3371060221406890
  0.2481928558023798  0.7517493212542319  0.3370424618010415
  0.5814587194076043  0.4183925250535477  0.3370454588181314
  0.7481317046080390  0.2517188463993590  0.3370013513514322
  0.5814483022145309  0.9183940456943770  0.3371155950788808
  0.7481059807008196  0.7517114046693866  0.3370760384526005
 
  0.00000000E+00  0.00000000E+00  0.00000000E+00
  0.00000000E+00  0.00000000E+00  0.00000000E+00
  0.00000000E+00  0.00000000E+00  0.00000000E+00
  0.00000000E+00  0.00000000E+00  0.00000000E+00
  0.00000000E+00  0.00000000E+00  0.00000000E+00
  0.00000000E+00  0.00000000E+00  0.00000000E+00
  0.00000000E+00  0.00000000E+00  0.00000000E+00
  0.00000000E+00  0.00000000E+00  0.00000000E+00
  0.00000000E+00  0.00000000E+00  0.00000000E+00
  0.00000000E+00  0.00000000E+00  0.00000000E+00
  0.00000000E+00  0.00000000E+00  0.00000000E+00
  0.00000000E+00  0.00000000E+00  0.00000000E+00
  0.00000000E+00  0.00000000E+00  0.00000000E+00
  0.00000000E+00  0.00000000E+00  0.00000000E+00
  0.00000000E+00  0.00000000E+00  0.00000000E+00
