Graphene-Borophene Bridge with lattice p
   1.00000000000000     
     4.3119404854427197    2.4895000000000000    0.0000000000000000
    -4.3119404854427197    2.4895000000000000    0.0000000000000000
     0.0000000000000000    0.0000000000000000   15.0000000000000000
   B    C 
     8     8
Direct
  0.6828595471591533 -0.0142567928786197  0.1012049609753422
  0.3458222082544096 -0.0142878337085254  0.1012082958719576
  0.0142567928786197  0.3171394528408490  0.1012049609753422
  0.0142878337085254  0.6541767917455927  0.1012082958719576
  0.3457252586706397  0.3170986491788802  0.1000619829932992
  0.6829003508211215  0.6542737413293629  0.1000619829932992
  0.6806363056435951  0.3193626943564084  0.0879160892613520
  0.3473924485617387  0.6526065514382641  0.1137938753259533
  0.2357266783799355  0.2641944448148230  0.3344966072675189
  0.4024150288047370  0.0975452194018031  0.3344969681526223
  0.2357461159916715  0.7642528840083304  0.3346281653068165
  0.4024211067013463  0.5975778932986553  0.3345752813018147
  0.7357734759494267  0.2642255240505755  0.3344792209831873
  0.9024381793584049  0.0975608206415978  0.3343364039660556
  0.7358045551851793  0.7642723216200673  0.3344966072675189
  0.9024537805981994  0.5975839711952661  0.3344969681526223
 
  0.00000000E+00  0.00000000E+00  0.00000000E+00
  0.00000000E+00  0.00000000E+00  0.00000000E+00
  0.00000000E+00  0.00000000E+00  0.00000000E+00
  0.00000000E+00  0.00000000E+00  0.00000000E+00
  0.00000000E+00  0.00000000E+00  0.00000000E+00
  0.00000000E+00  0.00000000E+00  0.00000000E+00
  0.00000000E+00  0.00000000E+00  0.00000000E+00
  0.00000000E+00  0.00000000E+00  0.00000000E+00
  0.00000000E+00  0.00000000E+00  0.00000000E+00
  0.00000000E+00  0.00000000E+00  0.00000000E+00
  0.00000000E+00  0.00000000E+00  0.00000000E+00
  0.00000000E+00  0.00000000E+00  0.00000000E+00
  0.00000000E+00  0.00000000E+00  0.00000000E+00
  0.00000000E+00  0.00000000E+00  0.00000000E+00
  0.00000000E+00  0.00000000E+00  0.00000000E+00
  0.00000000E+00  0.00000000E+00  0.00000000E+00
