Graphene-Borophene Top with lattice para
   1.00000000000000     
     4.3136725362502881    2.4904999999999999    0.0000000000000000
    -4.3136725362502881    2.4904999999999999    0.0000000000000000
     0.0000000000000000    0.0000000000000000   15.0000000000000000
   B    C 
     8     8
Direct
  0.6685057336475506  0.0000224940635910  0.1671545626772412
  0.3315157604160436  0.0000224940635910  0.1671545626772412
 -0.0000224940635911  0.3314932663524525  0.1671545626772412
 -0.0000224940635910  0.6684832395839589  0.1671545626772412
  0.3315157604160436  0.3314932663524525  0.1671545626772412
  0.6685057336475506  0.6684832395839589  0.1671545626772412
  0.6666659999999993  0.3333330000000032  0.1542244469875266
  0.3333330000000032  0.6666659999999993  0.1799995817367366
  0.1666480900248589  0.3332971800497225  0.4006365002750483
  0.3333274868731547  0.1666632434365751  0.4005336581879648
  0.1666480900248589  0.8333509099751437  0.4006365002750483
  0.3333330000000032  0.6666659999999993  0.4006927117306920
  0.6666659999999993  0.3333330000000032  0.4005120747592514
  0.8333357565634274  0.1666632434365750  0.4005336581879648
  0.6667018199502798  0.8333509099751437  0.4006365002750483
  0.8333357565634274  0.6666715131268481  0.4005336581879648
 
  0.00000000E+00  0.00000000E+00  0.00000000E+00
  0.00000000E+00  0.00000000E+00  0.00000000E+00
  0.00000000E+00  0.00000000E+00  0.00000000E+00
  0.00000000E+00  0.00000000E+00  0.00000000E+00
  0.00000000E+00  0.00000000E+00  0.00000000E+00
  0.00000000E+00  0.00000000E+00  0.00000000E+00
  0.00000000E+00  0.00000000E+00  0.00000000E+00
  0.00000000E+00  0.00000000E+00  0.00000000E+00
  0.00000000E+00  0.00000000E+00  0.00000000E+00
  0.00000000E+00  0.00000000E+00  0.00000000E+00
  0.00000000E+00  0.00000000E+00  0.00000000E+00
  0.00000000E+00  0.00000000E+00  0.00000000E+00
  0.00000000E+00  0.00000000E+00  0.00000000E+00
  0.00000000E+00  0.00000000E+00  0.00000000E+00
  0.00000000E+00  0.00000000E+00  0.00000000E+00
  0.00000000E+00  0.00000000E+00  0.00000000E+00
