Graphene-Borophene Bridge with lattice p
   1.00000000000000     
     4.3076103584237977    2.4870000000000001    0.0000000000000000
    -4.3076103584237977    2.4870000000000001    0.0000000000000000
     0.0000000000000000    0.0000000000000000   15.0000000000000000
   B    C 
     8     8
Direct
  0.6730554047624109 -0.0044213441859941  0.1679489121870833
  0.3357964277182983 -0.0043015730431796  0.1680219274803381
  0.0044213441859941  0.3269435952375917  0.1679489121870833
  0.0043015730431796  0.6642025722817048  0.1680219274803381
  0.3355358978348755  0.3269579558525079  0.1667270318254969
  0.6730410441474941  0.6644631021651272  0.1667270318254969
  0.6706583220080393  0.3293406779919625  0.1556051938015866
  0.3373748956209293  0.6626241043790726  0.1805561915360743
  0.2457141336325275  0.2542364956224760  0.4013429420621768
  0.4123749514477133  0.0876133106853491  0.4013794201280609
  0.2457404773453223  0.7542585226546809  0.4014394918902816
  0.4124362900261300  0.5875627099738725  0.4014921808366542
  0.7457001937395871  0.2542988062604153  0.4013422564391282
  0.9123605174620205  0.0876384825379821  0.4012575514633349
  0.7457625043775261  0.7542848663674750  0.4013429420621768
  0.9123856893146542  0.5876240485522889  0.4013794201280608
 
  0.00000000E+00  0.00000000E+00  0.00000000E+00
  0.00000000E+00  0.00000000E+00  0.00000000E+00
  0.00000000E+00  0.00000000E+00  0.00000000E+00
  0.00000000E+00  0.00000000E+00  0.00000000E+00
  0.00000000E+00  0.00000000E+00  0.00000000E+00
  0.00000000E+00  0.00000000E+00  0.00000000E+00
  0.00000000E+00  0.00000000E+00  0.00000000E+00
  0.00000000E+00  0.00000000E+00  0.00000000E+00
  0.00000000E+00  0.00000000E+00  0.00000000E+00
  0.00000000E+00  0.00000000E+00  0.00000000E+00
  0.00000000E+00  0.00000000E+00  0.00000000E+00
  0.00000000E+00  0.00000000E+00  0.00000000E+00
  0.00000000E+00  0.00000000E+00  0.00000000E+00
  0.00000000E+00  0.00000000E+00  0.00000000E+00
  0.00000000E+00  0.00000000E+00  0.00000000E+00
  0.00000000E+00  0.00000000E+00  0.00000000E+00
