Graphene-Borophene Bridge with lattice p
   1.00000000000000     
     4.3076103584237977    2.4870000000000001    0.0000000000000000
    -4.3076103584237977    2.4870000000000001    0.0000000000000000
     0.0000000000000000    0.0000000000000000   15.0000000000000000
   B    C 
     8     8
Direct
  0.6698725575411959 -0.0001221439122747  0.1563984826415335
  0.3303206330088740 -0.0000332784293195  0.1565371081984200
  0.0001221439122747  0.3301264424588066  0.1563984826415335
  0.0000332784293195  0.6696783669911286  0.1565371081984200
  0.3303705059916446  0.3303990437019690  0.1565615006932479
  0.6695999562980333  0.6696284940083582  0.1565615006932479
  0.6666520388728191  0.3333469611271835  0.1513679582230171
  0.3332906642945712  0.6667083357054312  0.1716759077948627
  0.2526454723093152  0.2528958530311911  0.4117211777750656
  0.4185623925217910  0.0824465241772492  0.4108919444796686
  0.2503311756190598  0.7496678243809429  0.4103365017760087
  0.4160465499674813  0.5839524500325213  0.4112394466305291
  0.7482636979249964  0.2517353020750061  0.4114573703696435
  0.9158929771837627  0.0841060228162400  0.4122357209634399
  0.7471031469688114  0.7473535276906873  0.4117211777750656
  0.9175524758227535  0.5814366074782116  0.4108919444796686
 
  0.00000000E+00  0.00000000E+00  0.00000000E+00
  0.00000000E+00  0.00000000E+00  0.00000000E+00
  0.00000000E+00  0.00000000E+00  0.00000000E+00
  0.00000000E+00  0.00000000E+00  0.00000000E+00
  0.00000000E+00  0.00000000E+00  0.00000000E+00
  0.00000000E+00  0.00000000E+00  0.00000000E+00
  0.00000000E+00  0.00000000E+00  0.00000000E+00
  0.00000000E+00  0.00000000E+00  0.00000000E+00
  0.00000000E+00  0.00000000E+00  0.00000000E+00
  0.00000000E+00  0.00000000E+00  0.00000000E+00
  0.00000000E+00  0.00000000E+00  0.00000000E+00
  0.00000000E+00  0.00000000E+00  0.00000000E+00
  0.00000000E+00  0.00000000E+00  0.00000000E+00
  0.00000000E+00  0.00000000E+00  0.00000000E+00
  0.00000000E+00  0.00000000E+00  0.00000000E+00
  0.00000000E+00  0.00000000E+00  0.00000000E+00
