Graphene-Borophene Bridge with lattice p
   1.00000000000000     
     4.3076103584237977    2.4870000000000001    0.0000000000000000
    -4.3076103584237977    2.4870000000000001    0.0000000000000000
     0.0000000000000000    0.0000000000000000   15.0000000000000000
   B    C 
     8     8
Direct
  0.6698470565841015 -0.0000100597808730  0.1096556308819886
  0.3302088433638443  0.0000106734397847  0.1096796893463023
  0.0000100597808730  0.3301519434159010  0.1096556308819886
 -0.0000106734397847  0.6697901566361584  0.1096796893463023
  0.3302194447812201  0.3302151618164316  0.1096840267641421
  0.6697838381835708  0.6697795552187827  0.1096840267641421
  0.6666585707630335  0.3333404292369692  0.1081622267886220
  0.3333251822076315  0.6666738177923709  0.1129313976380221
  0.2510658474863400  0.2515361086028848  0.4592512693594794
  0.4177761753967174  0.0827482205759968  0.4590967910251154
  0.2499664383701224  0.7500325616298802  0.4589928114578219
  0.4165880307860345  0.5834109692139681  0.4591624577989259
  0.7489931772641273  0.2510058227358752  0.4592022530277525
  0.9165140043177485  0.0834849956822541  0.4593473718681718
  0.7484628913971176  0.7489331525136624  0.4592512693594794
  0.9172507794240058  0.5822228246032852  0.4590967910251154
 
  0.00000000E+00  0.00000000E+00  0.00000000E+00
  0.00000000E+00  0.00000000E+00  0.00000000E+00
  0.00000000E+00  0.00000000E+00  0.00000000E+00
  0.00000000E+00  0.00000000E+00  0.00000000E+00
  0.00000000E+00  0.00000000E+00  0.00000000E+00
  0.00000000E+00  0.00000000E+00  0.00000000E+00
  0.00000000E+00  0.00000000E+00  0.00000000E+00
  0.00000000E+00  0.00000000E+00  0.00000000E+00
  0.00000000E+00  0.00000000E+00  0.00000000E+00
  0.00000000E+00  0.00000000E+00  0.00000000E+00
  0.00000000E+00  0.00000000E+00  0.00000000E+00
  0.00000000E+00  0.00000000E+00  0.00000000E+00
  0.00000000E+00  0.00000000E+00  0.00000000E+00
  0.00000000E+00  0.00000000E+00  0.00000000E+00
  0.00000000E+00  0.00000000E+00  0.00000000E+00
  0.00000000E+00  0.00000000E+00  0.00000000E+00
