Graphene-B4C3 Hollow 2 with lattice para
   1.00000000000000     
     4.1906969289128986    2.4195000000000002    0.0000000000000000
    -4.1906969289128986    2.4195000000000002    0.0000000000000000
     0.0000000000000000    0.0000000000000000   15.0000000000000000
   B    C 
     4    11
Direct
  0.0042928342038653  0.0028497219737602  0.1024597979357213
  0.3594432573532854  0.0028553756165583  0.1008118232003655
  0.0043012384812032  0.3580004667023133  0.1008139258781935
  0.6491498988917181  0.6477039832073769  0.1008179228311108
  0.3280321627414322  0.3265861914833550  0.1009478812322695
  0.6805681484906539  0.0028558250572326  0.1009481084252929
  0.0043015468624011  0.6791229296720720  0.1009483254353941
  0.1665448110767331  0.3332608317409141  0.3379658803211258
  0.3332353139878667  0.1665827433563705  0.3379676270367237
  0.1665855893443252  0.8332810658255575  0.3379698454810012
  0.3332358616578217  0.6666048484409423  0.3378477763235160
  0.6665663944700362  0.3332606759746604  0.3378477781692153
  0.8332548148043060  0.1666230355068714  0.3379691651002550
  0.6665658379840741  0.8332422888562686  0.3379656033306749
  0.8332162896502848  0.6666040165857575  0.3379645392991665
 
  0.00000000E+00  0.00000000E+00  0.00000000E+00
  0.00000000E+00  0.00000000E+00  0.00000000E+00
  0.00000000E+00  0.00000000E+00  0.00000000E+00
  0.00000000E+00  0.00000000E+00  0.00000000E+00
  0.00000000E+00  0.00000000E+00  0.00000000E+00
  0.00000000E+00  0.00000000E+00  0.00000000E+00
  0.00000000E+00  0.00000000E+00  0.00000000E+00
  0.00000000E+00  0.00000000E+00  0.00000000E+00
  0.00000000E+00  0.00000000E+00  0.00000000E+00
  0.00000000E+00  0.00000000E+00  0.00000000E+00
  0.00000000E+00  0.00000000E+00  0.00000000E+00
  0.00000000E+00  0.00000000E+00  0.00000000E+00
  0.00000000E+00  0.00000000E+00  0.00000000E+00
  0.00000000E+00  0.00000000E+00  0.00000000E+00
  0.00000000E+00  0.00000000E+00  0.00000000E+00
