Graphene-B4C3 Hollow 2 with lattice para
   1.00000000000000     
     4.1855007764901915    2.4165000000000001    0.0000000000000000
    -4.1855007764901915    2.4165000000000001    0.0000000000000000
     0.0000000000000000    0.0000000000000000   15.0000000000000000
   B    C 
     4    11
Direct
  0.0043816232568284  0.0029088480829712  0.0994968240365363
  0.3595320520060566  0.0029155905322989  0.1012516458204416
  0.0043907634044663  0.3580601909082759  0.1012537682952140
  0.6492398636032112  0.6477644486794646  0.1012579491691404
  0.3281750578422692  0.3266998177888120  0.1009835233255716
  0.6806049508010751  0.0029152293852501  0.1009829449300852
  0.0043908553251625  0.6791310935701607  0.1009832666249000
  0.1664698284173214  0.3332110569274869  0.3381557313012388
  0.3331535738668600  0.1665262605615798  0.3381575218994252
  0.1665082108015041  0.8332339518346830  0.3381598957995914
  0.3331543158285020  0.6665465705053110  0.3380468024496727
  0.6664879446954867  0.3332116233723086  0.3380468053042041
  0.8331756661489266  0.1665653793791216  0.3381592601500070
  0.6664897791886737  0.8331963542824039  0.3381556087860844
  0.8331395148136638  0.6665475841898837  0.3381544521079140
 
  0.00000000E+00  0.00000000E+00  0.00000000E+00
  0.00000000E+00  0.00000000E+00  0.00000000E+00
  0.00000000E+00  0.00000000E+00  0.00000000E+00
  0.00000000E+00  0.00000000E+00  0.00000000E+00
  0.00000000E+00  0.00000000E+00  0.00000000E+00
  0.00000000E+00  0.00000000E+00  0.00000000E+00
  0.00000000E+00  0.00000000E+00  0.00000000E+00
  0.00000000E+00  0.00000000E+00  0.00000000E+00
  0.00000000E+00  0.00000000E+00  0.00000000E+00
  0.00000000E+00  0.00000000E+00  0.00000000E+00
  0.00000000E+00  0.00000000E+00  0.00000000E+00
  0.00000000E+00  0.00000000E+00  0.00000000E+00
  0.00000000E+00  0.00000000E+00  0.00000000E+00
  0.00000000E+00  0.00000000E+00  0.00000000E+00
  0.00000000E+00  0.00000000E+00  0.00000000E+00
