Graphene-BC3 Bridge with lattice paramet
   1.00000000000000     
     4.3708302129000609    2.5234999999999999    0.0000000000000000
    -4.3708302129000609    2.5234999999999999    0.0000000000000000
     0.0000000000000000    0.0000000000000000   15.0000000000000000
   B    C 
     2    14
Direct
  0.3178624041578907  0.6909409679341072  0.1006483323498693
  0.6512720889485027  0.3575569838498655  0.1004117438698117
  0.1441713796420004  0.3435160895674655  0.1004038242126688
  0.3037098876277288  0.1838904835248931  0.1003178372798153
  0.1441160002377188  0.8647283335525887  0.1002886336373589
  0.8249668253286341  0.1838131675477981  0.1004689831927776
  0.6652962214715665  0.8646283451640211  0.1003887097790180
  0.8249522814864254  0.7051143612042136  0.1003020366549511
  0.2704586581063445  0.2281871285579625  0.3259934615293142
  0.4370961294741535  0.0616106845392182  0.3259832599004144
  0.2704336025773288  0.7282493217361604  0.3257290142867068
  0.4371613514469507  0.5615167735596149  0.3259133451988890
  0.7704543186883924  0.2282265076142754  0.3259042711566859
  0.9371420282664462  0.0615381282425536  0.3259419095441411
  0.7704956802974477  0.7282249273011924  0.3259933232384143
  0.9370698089091751  0.5615831294373933  0.3259779808358204
 
  0.00000000E+00  0.00000000E+00  0.00000000E+00
  0.00000000E+00  0.00000000E+00  0.00000000E+00
  0.00000000E+00  0.00000000E+00  0.00000000E+00
  0.00000000E+00  0.00000000E+00  0.00000000E+00
  0.00000000E+00  0.00000000E+00  0.00000000E+00
  0.00000000E+00  0.00000000E+00  0.00000000E+00
  0.00000000E+00  0.00000000E+00  0.00000000E+00
  0.00000000E+00  0.00000000E+00  0.00000000E+00
  0.00000000E+00  0.00000000E+00  0.00000000E+00
  0.00000000E+00  0.00000000E+00  0.00000000E+00
  0.00000000E+00  0.00000000E+00  0.00000000E+00
  0.00000000E+00  0.00000000E+00  0.00000000E+00
  0.00000000E+00  0.00000000E+00  0.00000000E+00
  0.00000000E+00  0.00000000E+00  0.00000000E+00
  0.00000000E+00  0.00000000E+00  0.00000000E+00
  0.00000000E+00  0.00000000E+00  0.00000000E+00
