Graphene-Borophene Hollow 1 with lattice
   1.00000000000000     
     4.2998161297897379    2.4824999999999999    0.0000000000000000
    -4.2998161297897379    2.4824999999999999    0.0000000000000000
     0.0000000000000000    0.0000000000000000   15.0000000000000000
   B    C 
     8     8
Direct
  0.6712784333891603 -0.0026203252145723  0.1676808030115899
  0.3337472747089789 -0.0025125076711174  0.1675862701273705
  0.0026203252145723  0.3287205666108421  0.1676808030115899
  0.0025125076711174  0.6662517252910235  0.1675862701273705
  0.3335410442658398  0.3285977061779310  0.1665587366521495
  0.6714012938220713  0.6664579557341631  0.1665587366521495
  0.6689462548504116  0.3310527451495901  0.1545517903247671
  0.3356552164037441  0.6643437835962582  0.1805712156103437
  0.2752972808179511  0.2247030664670502  0.4022142060704119
  0.4420243390597513  0.0580468813010239  0.4022879937089853
  0.2752937734858041  0.7247052265141987  0.4022990012307729
  0.4420277005574982  0.5579712994425042  0.4023483817315416
  0.7753081611323539  0.2246908388676483  0.4022351751534148
  0.9419802312777458  0.0580187687222563  0.4021384168081549
  0.7752959335329529  0.7247017191820516  0.4022142060704119
  0.9419521186989782  0.5579746609402513  0.4022879937089853
 
  0.00000000E+00  0.00000000E+00  0.00000000E+00
  0.00000000E+00  0.00000000E+00  0.00000000E+00
  0.00000000E+00  0.00000000E+00  0.00000000E+00
  0.00000000E+00  0.00000000E+00  0.00000000E+00
  0.00000000E+00  0.00000000E+00  0.00000000E+00
  0.00000000E+00  0.00000000E+00  0.00000000E+00
  0.00000000E+00  0.00000000E+00  0.00000000E+00
  0.00000000E+00  0.00000000E+00  0.00000000E+00
  0.00000000E+00  0.00000000E+00  0.00000000E+00
  0.00000000E+00  0.00000000E+00  0.00000000E+00
  0.00000000E+00  0.00000000E+00  0.00000000E+00
  0.00000000E+00  0.00000000E+00  0.00000000E+00
  0.00000000E+00  0.00000000E+00  0.00000000E+00
  0.00000000E+00  0.00000000E+00  0.00000000E+00
  0.00000000E+00  0.00000000E+00  0.00000000E+00
  0.00000000E+00  0.00000000E+00  0.00000000E+00
