k-points 12
0
Gamma
12    12    1
0    0    0