Graphene-B4C3 Hollow 2 with lattice para
   1.00000000000000     
     4.2140796148150779    2.4329999999999998    0.0000000000000000
    -4.2140796148150779    2.4329999999999998    0.0000000000000000
     0.0000000000000000    0.0000000000000000   15.0000000000000000
   B    C 
     4    11
Direct
  0.0044384232658519  0.0029512088464652  0.0997572422157024
  0.3595849517385181  0.0029584540921978  0.1007975339631097
  0.0044491821060498  0.3580984169155546  0.1007995923599532
  0.6492970927372749  0.6478061573615479  0.1008037878909306
  0.3279299281736644  0.3264396608919357  0.1006111945673514
  0.6809572048463605  0.0029546194746621  0.1006161109462702
  0.0044441711132850  0.6794641776934911  0.1006174335953219
  0.1664155917337810  0.3331757932858828  0.3384305809195781
  0.3331051853971894  0.1664872862054816  0.3384323552452969
  0.1664596673722626  0.8331994637218273  0.3384347088122260
  0.3331083741557359  0.6665144585038659  0.3383256591720347
  0.6664430723168647  0.3331778718945941  0.3383256664033424
  0.8331279956496502  0.1665300309445310  0.3384340712863748
  0.6664437575439713  0.8331613677478196  0.3384305737146780
  0.8330894018495476  0.6665150324201536  0.3384294889078577
 
  0.00000000E+00  0.00000000E+00  0.00000000E+00
  0.00000000E+00  0.00000000E+00  0.00000000E+00
  0.00000000E+00  0.00000000E+00  0.00000000E+00
  0.00000000E+00  0.00000000E+00  0.00000000E+00
  0.00000000E+00  0.00000000E+00  0.00000000E+00
  0.00000000E+00  0.00000000E+00  0.00000000E+00
  0.00000000E+00  0.00000000E+00  0.00000000E+00
  0.00000000E+00  0.00000000E+00  0.00000000E+00
  0.00000000E+00  0.00000000E+00  0.00000000E+00
  0.00000000E+00  0.00000000E+00  0.00000000E+00
  0.00000000E+00  0.00000000E+00  0.00000000E+00
  0.00000000E+00  0.00000000E+00  0.00000000E+00
  0.00000000E+00  0.00000000E+00  0.00000000E+00
  0.00000000E+00  0.00000000E+00  0.00000000E+00
  0.00000000E+00  0.00000000E+00  0.00000000E+00
