Graphene-B4C3 Bridge with lattice parame
   1.00000000000000     
     4.2097494877961559    2.4304999999999999    0.0000000000000000
    -4.2097494877961559    2.4304999999999999    0.0000000000000000
     0.0000000000000000    0.0000000000000000   15.0000000000000000
   B    C 
     4    11
Direct
  0.0187453192466582 -0.0110837658479118  0.1014121240812533
  0.3739624812201398 -0.0109993515458951  0.1013741307226719
  0.0187171570955475  0.3438680704146850  0.1014248146191826
  0.6639019057998683  0.6336821397505534  0.1014126646479653
  0.3423563374185761  0.3122339458707144  0.1012868516959338
  0.6954086926997279 -0.0110411904481019  0.1013530256615266
  0.0186622175475570  0.6653997910540416  0.1013330689565578
  0.0705558199454743  0.4288248575471558  0.3369529459716689
  0.2371920510750738  0.2621909000759305  0.3370198114929497
  0.0705463889685932  0.9288569683628100  0.3369310528030147
  0.2372360855973900  0.7622015018437338  0.3369839046859641
  0.5705131098481682  0.4288269664412459  0.3369626598018393
  0.7371745811149047  0.2621729878957548  0.3369411190248577
  0.5704931082075887  0.9288092160472695  0.3370400726124840
  0.7371620775480522  0.7621576292047105  0.3369510865554664
 
  0.00000000E+00  0.00000000E+00  0.00000000E+00
  0.00000000E+00  0.00000000E+00  0.00000000E+00
  0.00000000E+00  0.00000000E+00  0.00000000E+00
  0.00000000E+00  0.00000000E+00  0.00000000E+00
  0.00000000E+00  0.00000000E+00  0.00000000E+00
  0.00000000E+00  0.00000000E+00  0.00000000E+00
  0.00000000E+00  0.00000000E+00  0.00000000E+00
  0.00000000E+00  0.00000000E+00  0.00000000E+00
  0.00000000E+00  0.00000000E+00  0.00000000E+00
  0.00000000E+00  0.00000000E+00  0.00000000E+00
  0.00000000E+00  0.00000000E+00  0.00000000E+00
  0.00000000E+00  0.00000000E+00  0.00000000E+00
  0.00000000E+00  0.00000000E+00  0.00000000E+00
  0.00000000E+00  0.00000000E+00  0.00000000E+00
  0.00000000E+00  0.00000000E+00  0.00000000E+00
