Graphene-B4C3 Hollow 1 with lattice para
   1.00000000000000     
     4.1941610305280363    2.4215000000000000    0.0000000000000000
    -4.1941610305280363    2.4215000000000000    0.0000000000000000
     0.0000000000000000    0.0000000000000000   15.0000000000000000
   B    C 
     4    11
Direct
  0.0069550543220532  0.0002759999362698  0.0997832974453497
  0.3620971852144804  0.0001918043824611  0.1016026342021244
  0.0069592588589535  0.3553492234192691  0.1016305443124956
  0.6519428287113173  0.6450543871645973  0.1016216961798905
  0.3308135936677888  0.3237835912967634  0.1012519238885347
  0.6834625400686998  0.0003905780688284  0.1013225123974687
  0.0070911139011564  0.6765573721712361  0.1012779409180368
  0.1085567890372204  0.3911001312510639  0.3378809899360144
  0.2752794918406294  0.2244794867898829  0.3380035196025237
  0.1086197315725691  0.8910969402977000  0.3379252977160187
  0.2753364998895743  0.7244786844560747  0.3378448605281706
  0.6086310780999029  0.3910934345055074  0.3378366284648758
  0.7752726611136285  0.2244140165082870  0.3379051301456701
  0.6086108476771120  0.8911419385724182  0.3379912975250789
  0.7752208815804636  0.7244708556241084  0.3379010600710679
 
  0.00000000E+00  0.00000000E+00  0.00000000E+00
  0.00000000E+00  0.00000000E+00  0.00000000E+00
  0.00000000E+00  0.00000000E+00  0.00000000E+00
  0.00000000E+00  0.00000000E+00  0.00000000E+00
  0.00000000E+00  0.00000000E+00  0.00000000E+00
  0.00000000E+00  0.00000000E+00  0.00000000E+00
  0.00000000E+00  0.00000000E+00  0.00000000E+00
  0.00000000E+00  0.00000000E+00  0.00000000E+00
  0.00000000E+00  0.00000000E+00  0.00000000E+00
  0.00000000E+00  0.00000000E+00  0.00000000E+00
  0.00000000E+00  0.00000000E+00  0.00000000E+00
  0.00000000E+00  0.00000000E+00  0.00000000E+00
  0.00000000E+00  0.00000000E+00  0.00000000E+00
  0.00000000E+00  0.00000000E+00  0.00000000E+00
  0.00000000E+00  0.00000000E+00  0.00000000E+00
