Graphene-B4C3 Bridge with lattice parame
   1.00000000000000     
     4.1889648781053292    2.4184999999999999    0.0000000000000000
    -4.1889648781053292    2.4184999999999999    0.0000000000000000
     0.0000000000000000    0.0000000000000000   15.0000000000000000
   B    C 
     4    11
Direct
  0.0279514126880934 -0.0196091220209636  0.0988885856520357
  0.3827784811409745 -0.0198364140734943  0.1017896471494084
  0.0276394742128534  0.3349470006165509  0.1014943304219487
  0.6735107570563693  0.6249264105328547  0.1016295298746650
  0.3522737305903404  0.3038506118790075  0.1013439075226586
  0.7041635827109529 -0.0196110141367002  0.1017369495614515
  0.0279238401764528  0.6561488294202990  0.1014334360485411
  0.0623245214459212  0.4364438396375683  0.3370729010180464
  0.2290511768904170  0.2696855411940041  0.3371764539831107
  0.0624457214310940  0.9364892898204557  0.3371109680459179
  0.2289878439195248  0.7698598668783854  0.3371980996981340
  0.5625006968670609  0.4365600670574121  0.3371559073968999
  0.7292409818886657  0.2697948476453350  0.3370683711503095
  0.5626294315473047  0.9365935857474106  0.3371198760861847
  0.7292056807672963  0.7698573264685719  0.3371603697240250
 
  0.00000000E+00  0.00000000E+00  0.00000000E+00
  0.00000000E+00  0.00000000E+00  0.00000000E+00
  0.00000000E+00  0.00000000E+00  0.00000000E+00
  0.00000000E+00  0.00000000E+00  0.00000000E+00
  0.00000000E+00  0.00000000E+00  0.00000000E+00
  0.00000000E+00  0.00000000E+00  0.00000000E+00
  0.00000000E+00  0.00000000E+00  0.00000000E+00
  0.00000000E+00  0.00000000E+00  0.00000000E+00
  0.00000000E+00  0.00000000E+00  0.00000000E+00
  0.00000000E+00  0.00000000E+00  0.00000000E+00
  0.00000000E+00  0.00000000E+00  0.00000000E+00
  0.00000000E+00  0.00000000E+00  0.00000000E+00
  0.00000000E+00  0.00000000E+00  0.00000000E+00
  0.00000000E+00  0.00000000E+00  0.00000000E+00
  0.00000000E+00  0.00000000E+00  0.00000000E+00
