Graphene-B4C3 Hollow_2 with lattice para
   1.00000000000000     
     4.1967591067393899    2.4230000000000000    0.0000000000000000
    -4.1967591067393899    2.4230000000000000    0.0000000000000000
     0.0000000000000000    0.0000000000000000   15.0000000000000000
   B    C 
     4    11
Direct
  0.0044465158782324  0.0029550623232108  0.0989950827757804
  0.3595997892762938  0.0029620535793951  0.1003968194698399
  0.0044571193777881  0.3581097366820040  0.1003989350656209
  0.6493001765642433  0.6478048167830717  0.1004024240057953
  0.3281182333489539  0.3266255260602293  0.1001691028066774
  0.6807837691485370  0.0029584420737478  0.1001710598855389
  0.0044506650001358  0.6792887647160648  0.1001717130519091
  0.1664144121861356  0.3331730954847200  0.3376432871038792
  0.3330988903504475  0.1664878309866095  0.3376450790266296
  0.1664526733475102  0.8331942581524190  0.3376476238779157
  0.3331003105980408  0.6665084798213020  0.3375361309509131
  0.6664338803366673  0.3331733907755006  0.3375361094269381
  0.8331195068569494  0.1665258987499424  0.3376469788450768
  0.6664348480728380  0.8331573139138188  0.3376433935934751
  0.8330832096572354  0.6665093298979748  0.3376422601140032
 
  0.00000000E+00  0.00000000E+00  0.00000000E+00
  0.00000000E+00  0.00000000E+00  0.00000000E+00
  0.00000000E+00  0.00000000E+00  0.00000000E+00
  0.00000000E+00  0.00000000E+00  0.00000000E+00
  0.00000000E+00  0.00000000E+00  0.00000000E+00
  0.00000000E+00  0.00000000E+00  0.00000000E+00
  0.00000000E+00  0.00000000E+00  0.00000000E+00
  0.00000000E+00  0.00000000E+00  0.00000000E+00
  0.00000000E+00  0.00000000E+00  0.00000000E+00
  0.00000000E+00  0.00000000E+00  0.00000000E+00
  0.00000000E+00  0.00000000E+00  0.00000000E+00
  0.00000000E+00  0.00000000E+00  0.00000000E+00
  0.00000000E+00  0.00000000E+00  0.00000000E+00
  0.00000000E+00  0.00000000E+00  0.00000000E+00
  0.00000000E+00  0.00000000E+00  0.00000000E+00
