Graphene-Borophene Bridge with lattice p
   1.00000000000000     
     4.3102084346351512    2.4885000000000002    0.0000000000000000
    -4.3102084346351512    2.4885000000000002    0.0000000000000000
     0.0000000000000000    0.0000000000000000   15.0000000000000000
   B    C 
     8     8
Direct
  0.6732663599506450 -0.0043550751234518  0.1678713024064085
  0.3358492383141219 -0.0042507603423728  0.1679586951523621
  0.0043550751234518  0.3267326400493585  0.1678713024064085
  0.0042507603423728  0.6641497616858809  0.1679586951523621
  0.3355485384025864  0.3268117917627109  0.1668390060933951
  0.6731872082372915  0.6644504615974157  0.1668390060933951
  0.6705850316451401  0.3294139683548625  0.1554821971772031
  0.3373095728009945  0.6626894271990090  0.1791112827607332
  0.2456903055985272  0.2542632816424903  0.4014939148537238
  0.4123531278984341  0.0876270012255048  0.4016237188263724
  0.2457097056427491  0.7542892943572533  0.4017797345795702
  0.4124178836907677  0.5875811163092343  0.4017311538905954
  0.7456841782300052  0.2543148217699976  0.4015310075526217
  0.9123449636576064  0.0876540363423959  0.4013246827081237
  0.7457357183575116  0.7543086944014749  0.4014939148537238
  0.9123719987744980  0.5876458721015689  0.4016237188263724
 
  0.00000000E+00  0.00000000E+00  0.00000000E+00
  0.00000000E+00  0.00000000E+00  0.00000000E+00
  0.00000000E+00  0.00000000E+00  0.00000000E+00
  0.00000000E+00  0.00000000E+00  0.00000000E+00
  0.00000000E+00  0.00000000E+00  0.00000000E+00
  0.00000000E+00  0.00000000E+00  0.00000000E+00
  0.00000000E+00  0.00000000E+00  0.00000000E+00
  0.00000000E+00  0.00000000E+00  0.00000000E+00
  0.00000000E+00  0.00000000E+00  0.00000000E+00
  0.00000000E+00  0.00000000E+00  0.00000000E+00
  0.00000000E+00  0.00000000E+00  0.00000000E+00
  0.00000000E+00  0.00000000E+00  0.00000000E+00
  0.00000000E+00  0.00000000E+00  0.00000000E+00
  0.00000000E+00  0.00000000E+00  0.00000000E+00
  0.00000000E+00  0.00000000E+00  0.00000000E+00
  0.00000000E+00  0.00000000E+00  0.00000000E+00
