Graphene-Borophene Top with lattice para
   1.00000000000000     
     4.3119404854427197    2.4895000000000000    0.0000000000000000
    -4.3119404854427197    2.4895000000000000    0.0000000000000000
     0.0000000000000000    0.0000000000000000   15.0000000000000000
   B    C 
     8     8
Direct
  0.6695596824957567  0.0000014042284634  0.0999980116354208
  0.3304407217327094  0.0000014042284634  0.0999980116354208
 -0.0000014042284634  0.3304393175042459  0.0999980116354208
 -0.0000014042284634  0.6695582782672932  0.0999980116354208
  0.3304407217327094  0.3304393175042459  0.0999980116354208
  0.6695596824957567  0.6695582782672932  0.0999980116354208
  0.6666659999999993  0.3333330000000032  0.0992042939652323
  0.3333330000000032  0.6666659999999993  0.1007725969495087
  0.1666593229983069  0.3333196459966183  0.3333352938675606
  0.3333218474007091  0.1666604237003523  0.3333325426850836
  0.1666593229983069  0.8333396770016955  0.3333352938675606
  0.3333330000000032  0.6666659999999993  0.3333501704967060
  0.6666659999999993  0.3333330000000032  0.3333480257847931
  0.8333385762996504  0.1666604237003523  0.3333325426850836
  0.6666793540033841  0.8333396770016955  0.3333352938675606
  0.8333385762996504  0.6666771525992934  0.3333325426850836
 
  0.00000000E+00  0.00000000E+00  0.00000000E+00
  0.00000000E+00  0.00000000E+00  0.00000000E+00
  0.00000000E+00  0.00000000E+00  0.00000000E+00
  0.00000000E+00  0.00000000E+00  0.00000000E+00
  0.00000000E+00  0.00000000E+00  0.00000000E+00
  0.00000000E+00  0.00000000E+00  0.00000000E+00
  0.00000000E+00  0.00000000E+00  0.00000000E+00
  0.00000000E+00  0.00000000E+00  0.00000000E+00
  0.00000000E+00  0.00000000E+00  0.00000000E+00
  0.00000000E+00  0.00000000E+00  0.00000000E+00
  0.00000000E+00  0.00000000E+00  0.00000000E+00
  0.00000000E+00  0.00000000E+00  0.00000000E+00
  0.00000000E+00  0.00000000E+00  0.00000000E+00
  0.00000000E+00  0.00000000E+00  0.00000000E+00
  0.00000000E+00  0.00000000E+00  0.00000000E+00
  0.00000000E+00  0.00000000E+00  0.00000000E+00
