Graphene-Borophene Top with lattice para
   1.00000000000000     
     4.3119404854427197    2.4895000000000000    0.0000000000000000
    -4.3119404854427197    2.4895000000000000    0.0000000000000000
     0.0000000000000000    0.0000000000000000   15.0000000000000000
   B    C 
     8     8
Direct
  0.6685153633271091  0.0000539322858916  0.1012311151383519
  0.3315375689587845  0.0000539322858917  0.1012311151383519
 -0.0000539322858917  0.3314836366728928  0.1012311151383519
 -0.0000539322858916  0.6684614310412178  0.1012311151383519
  0.3315375689587845  0.3314836366728928  0.1012311151383519
  0.6685153633271091  0.6684614310412178  0.1012311151383519
  0.6666659999999993  0.3333330000000032  0.0878633895903338
  0.3333330000000032  0.6666659999999993  0.1142058449792403
  0.1666526907443431  0.3333063814886908  0.3348645736902590
  0.3333327262529356  0.1666658631264655  0.3347599909297110
  0.1666526907443431  0.8333463092556591  0.3348645736902590
  0.3333330000000032  0.6666659999999993  0.3349284110030877
  0.6666659999999993  0.3333330000000032  0.3347419697373166
  0.8333331368735372  0.1666658631264655  0.3347599909297110
  0.6666926185113115  0.8333463092556591  0.3348645736902590
  0.8333331368735372  0.6666662737470669  0.3347599909297110
 
  0.00000000E+00  0.00000000E+00  0.00000000E+00
  0.00000000E+00  0.00000000E+00  0.00000000E+00
  0.00000000E+00  0.00000000E+00  0.00000000E+00
  0.00000000E+00  0.00000000E+00  0.00000000E+00
  0.00000000E+00  0.00000000E+00  0.00000000E+00
  0.00000000E+00  0.00000000E+00  0.00000000E+00
  0.00000000E+00  0.00000000E+00  0.00000000E+00
  0.00000000E+00  0.00000000E+00  0.00000000E+00
  0.00000000E+00  0.00000000E+00  0.00000000E+00
  0.00000000E+00  0.00000000E+00  0.00000000E+00
  0.00000000E+00  0.00000000E+00  0.00000000E+00
  0.00000000E+00  0.00000000E+00  0.00000000E+00
  0.00000000E+00  0.00000000E+00  0.00000000E+00
  0.00000000E+00  0.00000000E+00  0.00000000E+00
  0.00000000E+00  0.00000000E+00  0.00000000E+00
  0.00000000E+00  0.00000000E+00  0.00000000E+00
