Graphene-Borophene Hollow 2 with lattice
   1.00000000000000     
     4.2521847325815934    2.4550000000000001    0.0000000000000000
    -4.2521847325815934    2.4550000000000001    0.0000000000000000
     0.0000000000000000    0.0000000000000000   15.0000000000000000
   B    C 
     8     8
Direct
  0.6689219480106753 -0.0002037298269836  0.1645874241613153
  0.3308733221623437 -0.0002037298269836  0.1645874241613153
  0.0002037298269836  0.3310770519893274  0.1645874241613153
  0.0002037298269836  0.6691256778376589  0.1645874241613153
  0.3308733221623437  0.3310770519893274  0.1645874241613153
  0.6689219480106753  0.6691256778376589  0.1645874241613153
  0.6666659999999993  0.3333330000000032  0.1494922659245473
  0.3333330000000032  0.6666659999999993  0.1817517319638645
  0.3333485254454748  0.1666742627227445  0.4056889859347889
  0.4999972769052888 -0.0000054461894226  0.4057564639259208
  0.3333326666666636  0.6666663333333389  0.4060675581745199
  0.4999972769052887  0.5000017230947137  0.4057564639259208
  0.8333247372772578  0.1666742627227445  0.4056889859347889
  0.9999996666666675  0.9999993333333350  0.4056275493870380
  0.8333247372772578  0.6666504745545281  0.4056889859347889
  0.0000044461894252  0.5000017230947137  0.4057564639259208
 
  0.00000000E+00  0.00000000E+00  0.00000000E+00
  0.00000000E+00  0.00000000E+00  0.00000000E+00
  0.00000000E+00  0.00000000E+00  0.00000000E+00
  0.00000000E+00  0.00000000E+00  0.00000000E+00
  0.00000000E+00  0.00000000E+00  0.00000000E+00
  0.00000000E+00  0.00000000E+00  0.00000000E+00
  0.00000000E+00  0.00000000E+00  0.00000000E+00
  0.00000000E+00  0.00000000E+00  0.00000000E+00
  0.00000000E+00  0.00000000E+00  0.00000000E+00
  0.00000000E+00  0.00000000E+00  0.00000000E+00
  0.00000000E+00  0.00000000E+00  0.00000000E+00
  0.00000000E+00  0.00000000E+00  0.00000000E+00
  0.00000000E+00  0.00000000E+00  0.00000000E+00
  0.00000000E+00  0.00000000E+00  0.00000000E+00
  0.00000000E+00  0.00000000E+00  0.00000000E+00
  0.00000000E+00  0.00000000E+00  0.00000000E+00
