Graphene-B4C3 Bridge with lattice parame
   1.00000000000000     
     4.1932950051242512    2.4209999999999998    0.0000000000000000
    -4.1932950051242512    2.4209999999999998    0.0000000000000000
     0.0000000000000000    0.0000000000000000   15.0000000000000000
   B    C 
     4    11
Direct
  0.0313189552739542 -0.0230125527711575  0.1038830120224500
  0.3864953589763580 -0.0228391428666104  0.1006074912819630
  0.0311392524529153  0.3319404774982819  0.1006396975925214
  0.6764271936303157  0.6218199334421697  0.1006366485717778
  0.3551132785531589  0.3004748799161300  0.1008825558564976
  0.7078799061226945 -0.0227916074636104  0.1010010694308823
  0.0312124870560787  0.6533040246938923  0.1009202218520006
  0.0595329706663143  0.4392281947048586  0.3370740642113719
  0.2262264427283081  0.2726065846207989  0.3371674256004705
  0.0595510053284569  0.9392446113521509  0.3370595949442596
  0.2262562327208085  0.7725525631767920  0.3371273965163147
  0.5595541044529645  0.4392377187565112  0.3370929721271809
  0.7262163940482069  0.2725492420287701  0.3370340897329052
  0.5595329198251655  0.9392630944636301  0.3371389477131562
  0.7261708314976223  0.7725226451140913  0.3371141458795848
 
  0.00000000E+00  0.00000000E+00  0.00000000E+00
  0.00000000E+00  0.00000000E+00  0.00000000E+00
  0.00000000E+00  0.00000000E+00  0.00000000E+00
  0.00000000E+00  0.00000000E+00  0.00000000E+00
  0.00000000E+00  0.00000000E+00  0.00000000E+00
  0.00000000E+00  0.00000000E+00  0.00000000E+00
  0.00000000E+00  0.00000000E+00  0.00000000E+00
  0.00000000E+00  0.00000000E+00  0.00000000E+00
  0.00000000E+00  0.00000000E+00  0.00000000E+00
  0.00000000E+00  0.00000000E+00  0.00000000E+00
  0.00000000E+00  0.00000000E+00  0.00000000E+00
  0.00000000E+00  0.00000000E+00  0.00000000E+00
  0.00000000E+00  0.00000000E+00  0.00000000E+00
  0.00000000E+00  0.00000000E+00  0.00000000E+00
  0.00000000E+00  0.00000000E+00  0.00000000E+00
