Graphene-Borophene Hollow 1 with lattice
   1.00000000000000     
     4.2824956217140491    2.4725000000000001    0.0000000000000000
    -4.2824956217140491    2.4725000000000001    0.0000000000000000
     0.0000000000000000    0.0000000000000000   15.0000000000000000
   B    C 
     8     8
Direct
  0.6708073398583483 -0.0019395081689055  0.1659869748280330
  0.3328675343817250 -0.0018806847098767  0.1667716622458910
  0.0019395081689055  0.3291916601416547  0.1659869748280330
  0.0018806847098767  0.6671314656182773  0.1667716622458910
  0.3325485759278949  0.3292650739412145  0.1680394931456917
  0.6707339260587885  0.6674504240721074  0.1680394931456917
  0.6681710620792997  0.3318279379207025  0.1794781557137816
  0.3347746469287815  0.6652243530712210  0.1528202824982458
  0.2760602100539274  0.2239516685179564  0.4028695728795899
  0.4427275026276578  0.0572771211391244  0.4029037423508844
  0.2760601414519529  0.7239388585480496  0.4027581009384932
  0.4427463638924572  0.5572526361075455  0.4028593957722135
  0.7760615773685240  0.2239374226314782  0.4029422292190214
  0.9427336050378680  0.0572653949621350  0.4027989449580734
  0.7760473314820452  0.7239387899460751  0.4028695728795899
  0.9427218788608780  0.5572714973723445  0.4029037423508844
 
  0.00000000E+00  0.00000000E+00  0.00000000E+00
  0.00000000E+00  0.00000000E+00  0.00000000E+00
  0.00000000E+00  0.00000000E+00  0.00000000E+00
  0.00000000E+00  0.00000000E+00  0.00000000E+00
  0.00000000E+00  0.00000000E+00  0.00000000E+00
  0.00000000E+00  0.00000000E+00  0.00000000E+00
  0.00000000E+00  0.00000000E+00  0.00000000E+00
  0.00000000E+00  0.00000000E+00  0.00000000E+00
  0.00000000E+00  0.00000000E+00  0.00000000E+00
  0.00000000E+00  0.00000000E+00  0.00000000E+00
  0.00000000E+00  0.00000000E+00  0.00000000E+00
  0.00000000E+00  0.00000000E+00  0.00000000E+00
  0.00000000E+00  0.00000000E+00  0.00000000E+00
  0.00000000E+00  0.00000000E+00  0.00000000E+00
  0.00000000E+00  0.00000000E+00  0.00000000E+00
  0.00000000E+00  0.00000000E+00  0.00000000E+00
