Graphene-B4C3 Top with lattice parameter
   1.00000000000000     
     4.1967591067393899    2.4230000000000000    0.0000000000000000
    -4.1967591067393899    2.4230000000000000    0.0000000000000000
     0.0000000000000000    0.0000000000000000   15.0000000000000000
  C/253f7b50bb8d
               8
Direct
  0.0001325946067112  0.5000630361044927  0.3351153309668433
  0.1667838639874830  0.3334528425916190  0.3351500116119865
  0.0001153858753540  0.0000710384020053  0.3350759302776822
  0.1668259534243646  0.8334026966236152  0.3351539062099036
  0.5001258782521560  0.5000998549242652  0.3351181103283523
  0.6667811595634348  0.3334059414239974  0.3350130992673002
  0.5000874427973159  0.0000536501085122  0.3351136758598372
  0.6667331651792665  0.8333581917733852  0.3351501006920188
 
  0.00000000E+00  0.00000000E+00  0.00000000E+00
  0.00000000E+00  0.00000000E+00  0.00000000E+00
  0.00000000E+00  0.00000000E+00  0.00000000E+00
  0.00000000E+00  0.00000000E+00  0.00000000E+00
  0.00000000E+00  0.00000000E+00  0.00000000E+00
  0.00000000E+00  0.00000000E+00  0.00000000E+00
  0.00000000E+00  0.00000000E+00  0.00000000E+00
  0.00000000E+00  0.00000000E+00  0.00000000E+00
