Graphene-B4C3 Top with lattice parameter
   1.00000000000000     
     4.1906969289128986    2.4195000000000002    0.0000000000000000
    -4.1906969289128986    2.4195000000000002    0.0000000000000000
     0.0000000000000000    0.0000000000000000   15.0000000000000000
   B    C 
     4    11
Direct
  0.0040446020741237  0.0026852860294860  0.1015818761259514
  0.3592357227547489  0.0029661294426694  0.1005008266246950
  0.0037675188082349  0.3576019236508764  0.1005015640532512
  0.6491320517099788  0.6475022893247299  0.1004980653106405
  0.3278360339698574  0.3262061679706315  0.1005546764909248
  0.6805269533744230  0.0029612380009984  0.1005557441796777
  0.0037660778082636  0.6788969259559362  0.1005533059310588
  0.0001410884843930  0.5000677221387602  0.3348504074550933
  0.1667907224385094  0.3334566816668324  0.3348856707539628
  0.0001242609179826  0.0000761128380449  0.3348076039117852
  0.1668331686182585  0.8334082200549329  0.3348897279924746
  0.5001351440817438  0.5001049672296752  0.3348532244130608
  0.6667887449987636  0.3334107067693857  0.3347453561695915
  0.5000966226729561  0.0000592464101921  0.3348488103042825
  0.6667419539544567  0.8333637158501743  0.3348858069502317
 
  0.00000000E+00  0.00000000E+00  0.00000000E+00
  0.00000000E+00  0.00000000E+00  0.00000000E+00
  0.00000000E+00  0.00000000E+00  0.00000000E+00
  0.00000000E+00  0.00000000E+00  0.00000000E+00
  0.00000000E+00  0.00000000E+00  0.00000000E+00
  0.00000000E+00  0.00000000E+00  0.00000000E+00
  0.00000000E+00  0.00000000E+00  0.00000000E+00
  0.00000000E+00  0.00000000E+00  0.00000000E+00
  0.00000000E+00  0.00000000E+00  0.00000000E+00
  0.00000000E+00  0.00000000E+00  0.00000000E+00
  0.00000000E+00  0.00000000E+00  0.00000000E+00
  0.00000000E+00  0.00000000E+00  0.00000000E+00
  0.00000000E+00  0.00000000E+00  0.00000000E+00
  0.00000000E+00  0.00000000E+00  0.00000000E+00
  0.00000000E+00  0.00000000E+00  0.00000000E+00
