BC3 with lattice parameter 5.169        
   1.00000000000000     
     4.4764850000000003    2.5844999999999998    0.0000000000000000
    -4.4764850000000003    2.5844999999999998    0.0000000000000000
     0.0000000000000000    0.0000000000000000   15.0000000000000000
   B    C 
     2     6
Direct
  0.3383342917339853  0.6691651149808966  0.2500000000000000
  0.6716660266846549  0.3358320121968358  0.2500000000000000
  0.1637097250852248  0.3199264231718709  0.2500000000000000
  0.3224267320336092  0.1612126150489895  0.2500000000000000
  0.1637164180301220  0.8437846242279127  0.2500000000000000
  0.8462821446428305  0.1612150604785682  0.2500000000000000
  0.6875726153606236  0.8437875827690282  0.2500000000000000
  0.8462880464289518  0.6850725671258971  0.2500000000000000
 
  0.00000000E+00  0.00000000E+00  0.00000000E+00
  0.00000000E+00  0.00000000E+00  0.00000000E+00
  0.00000000E+00  0.00000000E+00  0.00000000E+00
  0.00000000E+00  0.00000000E+00  0.00000000E+00
  0.00000000E+00  0.00000000E+00  0.00000000E+00
  0.00000000E+00  0.00000000E+00  0.00000000E+00
  0.00000000E+00  0.00000000E+00  0.00000000E+00
  0.00000000E+00  0.00000000E+00  0.00000000E+00
