k-points 5
0
Gamma
5    5    1
0    0    0