BC3 with lattice parameter 5.169        
   1.00000000000000     
     4.4764850000000003    2.5844999999999998    0.0000000000000000
    -4.4764850000000003    2.5844999999999998    0.0000000000000000
     0.0000000000000000    0.0000000000000000   15.0000000000000000
   B    C 
     2     6
Direct
  0.3383336783702291  0.6691650873665936  0.2500000000000000
  0.6716654673351259  0.3358327299920598  0.2500000000000000
  0.1635127755355020  0.3195301382454555  0.2500000000000000
  0.3220294701815892  0.1610141081204681  0.2500000000000000
  0.1635188420598002  0.8439828279413538  0.2500000000000000
  0.8464802423555003  0.1610168046229199  0.2500000000000000
  0.6879695949883693  0.8439854537031509  0.2500000000000000
  0.8464859291738862  0.6854688500079973  0.2500000000000000
 
  0.00000000E+00  0.00000000E+00  0.00000000E+00
  0.00000000E+00  0.00000000E+00  0.00000000E+00
  0.00000000E+00  0.00000000E+00  0.00000000E+00
  0.00000000E+00  0.00000000E+00  0.00000000E+00
  0.00000000E+00  0.00000000E+00  0.00000000E+00
  0.00000000E+00  0.00000000E+00  0.00000000E+00
  0.00000000E+00  0.00000000E+00  0.00000000E+00
  0.00000000E+00  0.00000000E+00  0.00000000E+00
