Graphene-B4C3 Hollow 2 with lattice para
   1.00000000000000     
     4.2080174369885874    2.4295000000000000    0.0000000000000000
    -4.2080174369885874    2.4295000000000000    0.0000000000000000
     0.0000000000000000    0.0000000000000000   15.0000000000000000
   B    C 
     4    11
Direct
  0.0044288206183973  0.0029452351489312  0.0997534357067867
  0.3595689479587937  0.0029503671931057  0.1008945328237990
  0.0044366131622025  0.3580856251821235  0.1008969322386329
  0.6492910416495653  0.6478043442724623  0.1009005049091989
  0.3279758932276109  0.3264907818013442  0.1007121808792038
  0.6808911245580008  0.0029494279496707  0.1006953273657075
  0.0044349560053520  0.6794029711593975  0.1006925058063417
  0.1664339575275094  0.3331805734341102  0.3383635582428171
  0.3331134047150633  0.1664997547765530  0.3383652266813604
  0.1664661207386446  0.8332027553606322  0.3383670617024491
  0.3331146112352276  0.6665171024063544  0.3382570965179346
  0.6664480823192371  0.3331819399965468  0.3382571523903845
  0.8331345671123983  0.1665336561164830  0.3383664842234256
  0.6664505532619648  0.8331710837414668  0.3383626059293527
  0.8331053059100393  0.6665183814608296  0.3383613945826320
 
  0.00000000E+00  0.00000000E+00  0.00000000E+00
  0.00000000E+00  0.00000000E+00  0.00000000E+00
  0.00000000E+00  0.00000000E+00  0.00000000E+00
  0.00000000E+00  0.00000000E+00  0.00000000E+00
  0.00000000E+00  0.00000000E+00  0.00000000E+00
  0.00000000E+00  0.00000000E+00  0.00000000E+00
  0.00000000E+00  0.00000000E+00  0.00000000E+00
  0.00000000E+00  0.00000000E+00  0.00000000E+00
  0.00000000E+00  0.00000000E+00  0.00000000E+00
  0.00000000E+00  0.00000000E+00  0.00000000E+00
  0.00000000E+00  0.00000000E+00  0.00000000E+00
  0.00000000E+00  0.00000000E+00  0.00000000E+00
  0.00000000E+00  0.00000000E+00  0.00000000E+00
  0.00000000E+00  0.00000000E+00  0.00000000E+00
  0.00000000E+00  0.00000000E+00  0.00000000E+00
