Graphene-BC3 Hollow with lattice paramet
   1.00000000000000     
     4.3907487971871024    2.5349999999999993    0.0000000000000000
    -4.3907487971871024    2.5349999999999993    0.0000000000000000
     0.0000000000000000    0.0000000000000000   15.0000000000000000
   B    C 
     2    14
Direct
  0.3382934341231426  0.6691461697699983  0.1003447711081272
  0.6716295021347901  0.3358141364278495  0.1000287769429233
  0.1644155126014693  0.3213897282514371  0.1000282670782431
  0.3237938886253262  0.1618964590091642  0.1000395853724749
  0.1644160527598169  0.8430242137986758  0.1000281809554477
  0.8455412360278615  0.1618946140740603  0.1000292350428163
  0.6860445997271606  0.8430214848283315  0.1000178818056780
  0.8455410540757482  0.6836444957404662  0.1000291474867221
  0.3333900227190884  0.1666955387907969  0.3255147317798970
  0.5000815831724348  0.0001073953074025  0.3254934593572998
  0.3333699421881691  0.6666854929165905  0.3252098122066993
  0.5000815653919295  0.4999743056577701  0.3254934655795717
  0.8333647740532302  0.1666969854827441  0.3255100617772411
  0.0000425225069288  0.0000213306006713  0.3254951985577237
  0.8333647663535702  0.6666688230668473  0.3255100538355517
  0.9999548768726675  0.4999774929438891  0.3254940377802551
 
  0.00000000E+00  0.00000000E+00  0.00000000E+00
  0.00000000E+00  0.00000000E+00  0.00000000E+00
  0.00000000E+00  0.00000000E+00  0.00000000E+00
  0.00000000E+00  0.00000000E+00  0.00000000E+00
  0.00000000E+00  0.00000000E+00  0.00000000E+00
  0.00000000E+00  0.00000000E+00  0.00000000E+00
  0.00000000E+00  0.00000000E+00  0.00000000E+00
  0.00000000E+00  0.00000000E+00  0.00000000E+00
  0.00000000E+00  0.00000000E+00  0.00000000E+00
  0.00000000E+00  0.00000000E+00  0.00000000E+00
  0.00000000E+00  0.00000000E+00  0.00000000E+00
  0.00000000E+00  0.00000000E+00  0.00000000E+00
  0.00000000E+00  0.00000000E+00  0.00000000E+00
  0.00000000E+00  0.00000000E+00  0.00000000E+00
  0.00000000E+00  0.00000000E+00  0.00000000E+00
  0.00000000E+00  0.00000000E+00  0.00000000E+00
