Graphene-B4C3 Hollow 2 with lattice para
   1.00000000000000     
     4.1932950051242512    2.4209999999999998    0.0000000000000000
    -4.1932950051242512    2.4209999999999998    0.0000000000000000
     0.0000000000000000    0.0000000000000000   15.0000000000000000
   B    C 
     4    11
Direct
  0.0041699699050439  0.0027134056918860  0.1196430781268470
  0.3564124804748163  0.0028277875545497  0.0976734979745668
  0.0042157222791363  0.3549729502330081  0.0976767393467461
  0.6519487502776935  0.6505748226818787  0.0976653987396859
  0.3263669080321975  0.3249810076933053  0.1003132808620254
  0.6820079300464562  0.0027918819170226  0.1002892922474379
  0.0041848800460964  0.6805820267135267  0.1002811683757260
  0.1666283088267679  0.3333803627220412  0.3372317351738728
  0.3333805972076818  0.1666297370061612  0.3372322779273738
  0.1667469717375421  0.8333638358202976  0.3372331723481365
  0.3333339891587748  0.6666692356061588  0.3371549220917071
  0.6666687848820583  0.3333321425817428  0.3371549137343695
  0.8333624502285253  0.1667457180939106  0.3372331109387626
  0.6666176069629800  0.8332510914945270  0.3372319491049404
  0.8332486499342371  0.6666179941899946  0.3372314630078291
 
  0.00000000E+00  0.00000000E+00  0.00000000E+00
  0.00000000E+00  0.00000000E+00  0.00000000E+00
  0.00000000E+00  0.00000000E+00  0.00000000E+00
  0.00000000E+00  0.00000000E+00  0.00000000E+00
  0.00000000E+00  0.00000000E+00  0.00000000E+00
  0.00000000E+00  0.00000000E+00  0.00000000E+00
  0.00000000E+00  0.00000000E+00  0.00000000E+00
  0.00000000E+00  0.00000000E+00  0.00000000E+00
  0.00000000E+00  0.00000000E+00  0.00000000E+00
  0.00000000E+00  0.00000000E+00  0.00000000E+00
  0.00000000E+00  0.00000000E+00  0.00000000E+00
  0.00000000E+00  0.00000000E+00  0.00000000E+00
  0.00000000E+00  0.00000000E+00  0.00000000E+00
  0.00000000E+00  0.00000000E+00  0.00000000E+00
  0.00000000E+00  0.00000000E+00  0.00000000E+00
