Graphene-B4C3 Hollow 2 with lattice para
   1.00000000000000     
     4.1932950051242512    2.4209999999999998    0.0000000000000000
    -4.1932950051242512    2.4209999999999998    0.0000000000000000
     0.0000000000000000    0.0000000000000000   15.0000000000000000
   B    C 
     4    11
Direct
  0.0042625768507078  0.0028663579305426  0.1041377212042466
  0.3593727569416026  0.0028273933196671  0.1007955375690601
  0.0042563377512139  0.3579350874781000  0.1007974992910906
  0.6490417887049510  0.6476289092042967  0.1008172276459478
  0.3276470026610196  0.3262418837409324  0.1012918239553667
  0.6807575310372502  0.0028138014259010  0.1013335577740056
  0.0042304113994222  0.6793074876122379  0.1013419302092768
  0.1664893289935589  0.3332577580658557  0.3376013662854258
  0.3332474934529829  0.1664953142116177  0.3376028389507755
  0.1667217550143330  0.8334703881204021  0.3376039575646426
  0.3332964629081974  0.6666293289920466  0.3375600431588195
  0.6666120068437675  0.3333095224315671  0.3375600776610723
  0.8334611436668764  0.1667381733935733  0.3376027954862691
  0.6666731301952341  0.8332241657359954  0.3375999304671348
  0.8332242735788894  0.6666884283372750  0.3375996927768931
 
  0.00000000E+00  0.00000000E+00  0.00000000E+00
  0.00000000E+00  0.00000000E+00  0.00000000E+00
  0.00000000E+00  0.00000000E+00  0.00000000E+00
  0.00000000E+00  0.00000000E+00  0.00000000E+00
  0.00000000E+00  0.00000000E+00  0.00000000E+00
  0.00000000E+00  0.00000000E+00  0.00000000E+00
  0.00000000E+00  0.00000000E+00  0.00000000E+00
  0.00000000E+00  0.00000000E+00  0.00000000E+00
  0.00000000E+00  0.00000000E+00  0.00000000E+00
  0.00000000E+00  0.00000000E+00  0.00000000E+00
  0.00000000E+00  0.00000000E+00  0.00000000E+00
  0.00000000E+00  0.00000000E+00  0.00000000E+00
  0.00000000E+00  0.00000000E+00  0.00000000E+00
  0.00000000E+00  0.00000000E+00  0.00000000E+00
  0.00000000E+00  0.00000000E+00  0.00000000E+00
