Graphene-B4C3 Bridge with lattice parame
   1.00000000000000     
     4.1742424462409931    2.4099999999999993    0.0000000000000000
    -4.1742424462409931    2.4099999999999993    0.0000000000000000
     0.0000000000000000    0.0000000000000000   15.0000000000000000
   B    C 
     4    11
Direct
  0.0376543726893660 -0.0293327317147693  0.0973268116650417
  0.3926108349434929 -0.0290313386812489  0.1046144942002087
  0.0373976624114336  0.3252688157008544  0.1048526803973660
  0.6830190642737485  0.6158433290104740  0.1048548586228813
  0.3614330483543430  0.2942109235139461  0.1037775076634334
  0.7142228488912135 -0.0290492379417532  0.1040298981022803
  0.0374667517090505  0.6468625755593788  0.1037573587753966
  0.0540331743434175  0.4447405164578686  0.3352077960613523
  0.2206766546232715  0.2780885472303789  0.3353738576578110
  0.0540205706460711  0.9447634033413956  0.3353060048917416
  0.2207320463197536  0.7780945994744398  0.3352884048063259
  0.5540260737611561  0.4447788517104946  0.3353324691073303
  0.7206812270075005  0.2780715116221963  0.3351002153517355
  0.5539868235663072  0.9447436039869805  0.3352400562728797
  0.7206661797931958  0.7780472973960595  0.3353169197575530
 
  0.00000000E+00  0.00000000E+00  0.00000000E+00
  0.00000000E+00  0.00000000E+00  0.00000000E+00
  0.00000000E+00  0.00000000E+00  0.00000000E+00
  0.00000000E+00  0.00000000E+00  0.00000000E+00
  0.00000000E+00  0.00000000E+00  0.00000000E+00
  0.00000000E+00  0.00000000E+00  0.00000000E+00
  0.00000000E+00  0.00000000E+00  0.00000000E+00
  0.00000000E+00  0.00000000E+00  0.00000000E+00
  0.00000000E+00  0.00000000E+00  0.00000000E+00
  0.00000000E+00  0.00000000E+00  0.00000000E+00
  0.00000000E+00  0.00000000E+00  0.00000000E+00
  0.00000000E+00  0.00000000E+00  0.00000000E+00
  0.00000000E+00  0.00000000E+00  0.00000000E+00
  0.00000000E+00  0.00000000E+00  0.00000000E+00
  0.00000000E+00  0.00000000E+00  0.00000000E+00
