k-points 32
0
Gamma
32    32    1
0    0    0