Graphene-B4C3 Hollow 1 with lattice para
   1.00000000000000     
     4.1612520651842271    2.4024999999999999    0.0000000000000000
    -4.1612520651842271    2.4024999999999999    0.0000000000000000
     0.0000000000000000    0.0000000000000000   15.0000000000000000
   B    C 
     4    11
Direct
  0.0233144659572423 -0.0146290008962460  0.0955187718086397
  0.3779890085585534 -0.0146438060391704  0.1052805463632209
  0.0233208338640854  0.3398445238234401  0.1053126054158959
  0.6690347870455060  0.6307466236791620  0.1053115359437033
  0.3474161770896446  0.3090866875387467  0.1040233978332263
  0.6997543139646094 -0.0145704501439658  0.1040274719807926
  0.0233992064442781  0.6614977362207218  0.1040654171808577
  0.0942898065636451  0.4041318492838838  0.3359800519139277
  0.2609344565452113  0.2375134319500918  0.3361348816639846
  0.0942758382790070  0.9041464171498418  0.3360173922903563
  0.2609559424896709  0.7375573567157946  0.3360030863404580
  0.5942032121313423  0.4041216127824772  0.3359905545343947
  0.7608623351263722  0.2374702523881426  0.3359868291112308
  0.5942157197190469  0.9041073350861936  0.3361216243914163
  0.7608834517773362  0.7374978749053539  0.3360051665612163
 
  0.00000000E+00  0.00000000E+00  0.00000000E+00
  0.00000000E+00  0.00000000E+00  0.00000000E+00
  0.00000000E+00  0.00000000E+00  0.00000000E+00
  0.00000000E+00  0.00000000E+00  0.00000000E+00
  0.00000000E+00  0.00000000E+00  0.00000000E+00
  0.00000000E+00  0.00000000E+00  0.00000000E+00
  0.00000000E+00  0.00000000E+00  0.00000000E+00
  0.00000000E+00  0.00000000E+00  0.00000000E+00
  0.00000000E+00  0.00000000E+00  0.00000000E+00
  0.00000000E+00  0.00000000E+00  0.00000000E+00
  0.00000000E+00  0.00000000E+00  0.00000000E+00
  0.00000000E+00  0.00000000E+00  0.00000000E+00
  0.00000000E+00  0.00000000E+00  0.00000000E+00
  0.00000000E+00  0.00000000E+00  0.00000000E+00
  0.00000000E+00  0.00000000E+00  0.00000000E+00
