Graphene-B4C3 Bridge with lattice parame
   1.00000000000000     
     4.2010892337583119    2.4255000000000000    0.0000000000000000
    -4.2010892337583119    2.4255000000000000    0.0000000000000000
     0.0000000000000000    0.0000000000000000   15.0000000000000000
   B    C 
     4    11
Direct
  0.0061472133619614  0.0009675427052478  0.1003940411988407
  0.3612591712031869  0.0008377007709348  0.1013440519816983
  0.0062951408157810  0.3560862030722978  0.1015294397077407
  0.6513594708332844  0.6455875684249068  0.1014700040574042
  0.3299170636872259  0.3243325920325211  0.1013212910996502
  0.6827752295550084  0.0007318581479628  0.1011558738469882
  0.0062291648906413  0.6771567521946078  0.1013291129916584
  0.0815035755430877  0.4183920046311451  0.3370589436821234
  0.2481750962375407  0.2517178180482416  0.3372019833362986
  0.0815048801973198  0.9184046814200563  0.3371371790340242
  0.2482003121352518  0.7517244736377738  0.3370761821736754
  0.5814806371502794  0.4183786974892299  0.3370864883622283
  0.7481480273547065  0.2516789168376670  0.3370354231863901
  0.5814846147385997  0.9184015649145471  0.3371421995392241
  0.7481477356294467  0.7517022923395568  0.3370971191353910
 
  0.00000000E+00  0.00000000E+00  0.00000000E+00
  0.00000000E+00  0.00000000E+00  0.00000000E+00
  0.00000000E+00  0.00000000E+00  0.00000000E+00
  0.00000000E+00  0.00000000E+00  0.00000000E+00
  0.00000000E+00  0.00000000E+00  0.00000000E+00
  0.00000000E+00  0.00000000E+00  0.00000000E+00
  0.00000000E+00  0.00000000E+00  0.00000000E+00
  0.00000000E+00  0.00000000E+00  0.00000000E+00
  0.00000000E+00  0.00000000E+00  0.00000000E+00
  0.00000000E+00  0.00000000E+00  0.00000000E+00
  0.00000000E+00  0.00000000E+00  0.00000000E+00
  0.00000000E+00  0.00000000E+00  0.00000000E+00
  0.00000000E+00  0.00000000E+00  0.00000000E+00
  0.00000000E+00  0.00000000E+00  0.00000000E+00
  0.00000000E+00  0.00000000E+00  0.00000000E+00
