Graphene-B4C3 Bridge with lattice parame
   1.00000000000000     
     4.2010892337583119    2.4255000000000000    0.0000000000000000
    -4.2010892337583119    2.4255000000000000    0.0000000000000000
     0.0000000000000000    0.0000000000000000   15.0000000000000000
   B    C 
     4    11
Direct
  0.0375827416511705 -0.0289273602677422  0.1024894139305787
  0.3926544079696210 -0.0286893909532210  0.0996128156378155
  0.0373822133324947  0.3260010069411214  0.0995981128790894
  0.6827256030102958  0.6159400837665219  0.0996021681763918
  0.3612611452869593  0.2945177887384631  0.0997908360134920
  0.7141378288506710 -0.0287253272818341  0.0999161867164035
  0.0373049881980884  0.6473703560937689  0.0998197486725013
  0.0541320612656080  0.4444308097293250  0.3380693865092017
  0.2207956866943761  0.2777703716520353  0.3381214815191083
  0.0541212221115060  0.9444267088586845  0.3379877575703000
  0.2208607240837235  0.7777415192153437  0.3380851054806059
  0.5541254896914134  0.4444390876026891  0.3380435453395219
  0.7207638513899566  0.2777203305915918  0.3380253488078840
  0.5540662719792381  0.9443884918484282  0.3381469214863884
  0.7207130978182001  0.7776961901315205  0.3380705045940531
 
  0.00000000E+00  0.00000000E+00  0.00000000E+00
  0.00000000E+00  0.00000000E+00  0.00000000E+00
  0.00000000E+00  0.00000000E+00  0.00000000E+00
  0.00000000E+00  0.00000000E+00  0.00000000E+00
  0.00000000E+00  0.00000000E+00  0.00000000E+00
  0.00000000E+00  0.00000000E+00  0.00000000E+00
  0.00000000E+00  0.00000000E+00  0.00000000E+00
  0.00000000E+00  0.00000000E+00  0.00000000E+00
  0.00000000E+00  0.00000000E+00  0.00000000E+00
  0.00000000E+00  0.00000000E+00  0.00000000E+00
  0.00000000E+00  0.00000000E+00  0.00000000E+00
  0.00000000E+00  0.00000000E+00  0.00000000E+00
  0.00000000E+00  0.00000000E+00  0.00000000E+00
  0.00000000E+00  0.00000000E+00  0.00000000E+00
  0.00000000E+00  0.00000000E+00  0.00000000E+00
