Graphene-B4C3 Bridge with lattice parame
   1.00000000000000     
     4.1898309035091144    2.4190000000000000    0.0000000000000000
    -4.1898309035091144    2.4190000000000000    0.0000000000000000
     0.0000000000000000    0.0000000000000000   15.0000000000000000
   B    C 
     4    11
Direct
  0.0240207331780450 -0.0159710295669430  0.0978054019363577
  0.3791249436694921 -0.0160113202717742  0.1013133950426758
  0.0237783326361595  0.3386719498089255  0.1019433244199169
  0.6690706839836537  0.6287526716168569  0.1017830632917043
  0.3478580807935930  0.3074495427843157  0.1012371013190919
  0.7005151254097647 -0.0157959170919555  0.1011501175006276
  0.0241420589957747  0.6600817019422693  0.1012971170820713
  0.0660479635606569  0.4332043520985653  0.3372280037438259
  0.2324717399767532  0.2663677118845865  0.3375702562323490
  0.0658817046540482  0.9332633532404655  0.3375114584582901
  0.2326981035564204  0.7666562824528557  0.3373340429042365
  0.5659771722582223  0.4333183240455007  0.3373802827889845
  0.7325594244367405  0.2665648853439914  0.3371095690832182
  0.5658035504163660  0.9329953513178035  0.3372700856500672
  0.7326777158076325  0.7665528070612324  0.3374461138799199
 
  0.00000000E+00  0.00000000E+00  0.00000000E+00
  0.00000000E+00  0.00000000E+00  0.00000000E+00
  0.00000000E+00  0.00000000E+00  0.00000000E+00
  0.00000000E+00  0.00000000E+00  0.00000000E+00
  0.00000000E+00  0.00000000E+00  0.00000000E+00
  0.00000000E+00  0.00000000E+00  0.00000000E+00
  0.00000000E+00  0.00000000E+00  0.00000000E+00
  0.00000000E+00  0.00000000E+00  0.00000000E+00
  0.00000000E+00  0.00000000E+00  0.00000000E+00
  0.00000000E+00  0.00000000E+00  0.00000000E+00
  0.00000000E+00  0.00000000E+00  0.00000000E+00
  0.00000000E+00  0.00000000E+00  0.00000000E+00
  0.00000000E+00  0.00000000E+00  0.00000000E+00
  0.00000000E+00  0.00000000E+00  0.00000000E+00
  0.00000000E+00  0.00000000E+00  0.00000000E+00
