Graphene-BC3 Hollow with lattice paramet
   1.00000000000000     
     4.3344571459411148    2.5024999999999999    0.0000000000000000
    -4.3344571459411148    2.5024999999999999    0.0000000000000000
     0.0000000000000000    0.0000000000000000   15.0000000000000000
   B    C 
     2    14
Direct
  0.3382183669231639  0.6691082795741747  0.1006337781037260
  0.6715536335024409  0.3357755148706014  0.1003042939899023
  0.1647524095535164  0.3221752568241840  0.1003382301369057
  0.3245496969304932  0.1622733912873817  0.1003586453703646
  0.1647519156104998  0.8425734354593469  0.1003376939100062
  0.8450494157721657  0.1622708309661200  0.1003107851069034
  0.6851460153820794  0.8425707497854154  0.1002907557928837
  0.8450506911002432  0.6827748558936121  0.1003102803213278
  0.3334640220885036  0.1667332038940229  0.3252224467933924
  0.5001509250064605  0.0001351818735790  0.3252020860440836
  0.3334469116804899  0.6667246320522701  0.3249192684320042
  0.5001509253387811  0.5000182370107751  0.3252020845133562
  0.8334422418543476  0.1667344580729936  0.3252174216468883
  0.0001163748061885  0.0000594476128646  0.3251989894543243
  0.8334422579013556  0.6667101861921980  0.3252174202926548
  0.0000395298826034  0.5000210052971542  0.3252024867579483
 
  0.00000000E+00  0.00000000E+00  0.00000000E+00
  0.00000000E+00  0.00000000E+00  0.00000000E+00
  0.00000000E+00  0.00000000E+00  0.00000000E+00
  0.00000000E+00  0.00000000E+00  0.00000000E+00
  0.00000000E+00  0.00000000E+00  0.00000000E+00
  0.00000000E+00  0.00000000E+00  0.00000000E+00
  0.00000000E+00  0.00000000E+00  0.00000000E+00
  0.00000000E+00  0.00000000E+00  0.00000000E+00
  0.00000000E+00  0.00000000E+00  0.00000000E+00
  0.00000000E+00  0.00000000E+00  0.00000000E+00
  0.00000000E+00  0.00000000E+00  0.00000000E+00
  0.00000000E+00  0.00000000E+00  0.00000000E+00
  0.00000000E+00  0.00000000E+00  0.00000000E+00
  0.00000000E+00  0.00000000E+00  0.00000000E+00
  0.00000000E+00  0.00000000E+00  0.00000000E+00
  0.00000000E+00  0.00000000E+00  0.00000000E+00
