Graphene-B4C3 Bridge with lattice parame
   1.00000000000000     
     4.1967591067393890    2.4229999999999996    0.0000000000000000
    -4.1967591067393890    2.4229999999999996    0.0000000000000000
     0.0000000000000000    0.0000000000000000   15.0000000000000000
   B    C 
     4    11
Direct
  0.0237620449322853 -0.0158318275438508  0.1031030761624310
  0.3790221963378487 -0.0156481898713651  0.1015740193896253
  0.0236574919627494  0.3392053524648096  0.1016483090222313
  0.6688590804902081  0.6289739882382586  0.1016328143480434
  0.3475966884861841  0.3076873535611105  0.1017110699008545
  0.7003789730270428 -0.0156452607016460  0.1017276858594833
  0.0236135368925972  0.6603950491845112  0.1017544203150987
  0.0661920590369691  0.4329446216783007  0.3364854978083932
  0.2328073659655604  0.2663155497820329  0.3366156235628704
  0.0661513749345803  0.9329880165805232  0.3365154940218169
  0.2328322011305085  0.7662990192147199  0.3365434530266423
  0.5661076476534042  0.4329440422288976  0.3365193196933838
  0.7327713872067902  0.2662934795638642  0.3364505096706500
  0.5661038371791168  0.9329265809413264  0.3365605504228412
  0.7327714480974766  0.7662528913452041  0.3365374901289706
 
  0.00000000E+00  0.00000000E+00  0.00000000E+00
  0.00000000E+00  0.00000000E+00  0.00000000E+00
  0.00000000E+00  0.00000000E+00  0.00000000E+00
  0.00000000E+00  0.00000000E+00  0.00000000E+00
  0.00000000E+00  0.00000000E+00  0.00000000E+00
  0.00000000E+00  0.00000000E+00  0.00000000E+00
  0.00000000E+00  0.00000000E+00  0.00000000E+00
  0.00000000E+00  0.00000000E+00  0.00000000E+00
  0.00000000E+00  0.00000000E+00  0.00000000E+00
  0.00000000E+00  0.00000000E+00  0.00000000E+00
  0.00000000E+00  0.00000000E+00  0.00000000E+00
  0.00000000E+00  0.00000000E+00  0.00000000E+00
  0.00000000E+00  0.00000000E+00  0.00000000E+00
  0.00000000E+00  0.00000000E+00  0.00000000E+00
  0.00000000E+00  0.00000000E+00  0.00000000E+00
