Graphene-B4C3 Bridge with lattice parame
   1.00000000000000     
     4.1872328272977608    2.4175000000000000    0.0000000000000000
    -4.1872328272977608    2.4175000000000000    0.0000000000000000
     0.0000000000000000    0.0000000000000000   15.0000000000000000
   B    C 
     4    11
Direct
  0.0105263389999566 -0.0034054552985320  0.1000181520107005
  0.3657331306078679 -0.0032820083112362  0.1014576964678628
  0.0105789750202749  0.3517317037021789  0.1017257382399389
  0.6557551355632455  0.6415267778339053  0.1016525246506101
  0.3345894070256990  0.3203751960668718  0.1013454515215372
  0.6870044292368644 -0.0033134475156201  0.1014270961705132
  0.0104916986162737  0.6728012317933806  0.1013978839481053
  0.0776503010267513  0.4220357856792386  0.3369983181136484
  0.2443259354245673  0.2554033588901244  0.3371408999615553
  0.0776940946719715  0.9220673939714074  0.3370816049655888
  0.2443780345765242  0.7553715968830844  0.3370127246900727
  0.5776640988444803  0.4220133411009866  0.3370391863304264
  0.7443219119313635  0.2553539807163400  0.3369548001941335
  0.5776414296907387  0.9220659965817520  0.3370901787619738
  0.7442724120967439  0.7553552145728168  0.3370370773066695
 
  0.00000000E+00  0.00000000E+00  0.00000000E+00
  0.00000000E+00  0.00000000E+00  0.00000000E+00
  0.00000000E+00  0.00000000E+00  0.00000000E+00
  0.00000000E+00  0.00000000E+00  0.00000000E+00
  0.00000000E+00  0.00000000E+00  0.00000000E+00
  0.00000000E+00  0.00000000E+00  0.00000000E+00
  0.00000000E+00  0.00000000E+00  0.00000000E+00
  0.00000000E+00  0.00000000E+00  0.00000000E+00
  0.00000000E+00  0.00000000E+00  0.00000000E+00
  0.00000000E+00  0.00000000E+00  0.00000000E+00
  0.00000000E+00  0.00000000E+00  0.00000000E+00
  0.00000000E+00  0.00000000E+00  0.00000000E+00
  0.00000000E+00  0.00000000E+00  0.00000000E+00
  0.00000000E+00  0.00000000E+00  0.00000000E+00
  0.00000000E+00  0.00000000E+00  0.00000000E+00
