Graphene-B4C3 Hollow 2 with lattice para
   1.00000000000000     
     4.2348642245059045    2.4449999999999998    0.0000000000000000
    -4.2348642245059045    2.4449999999999998    0.0000000000000000
     0.0000000000000000    0.0000000000000000   15.0000000000000000
   B    C 
     4    11
Direct
  0.0044518858081515  0.0029569881495042  0.0997056046198318
  0.3595591484253252  0.0029545949907748  0.1005546792652601
  0.0044557901201217  0.3580633263090571  0.1005561330852247
  0.6493417834605250  0.6478402082546421  0.1005617219727862
  0.3277121183887638  0.3262109215164330  0.1004004467884135
  0.6812045593227384  0.0029596824496400  0.1003942677633321
  0.0044599144550584  0.6797027091904495  0.1003927807151254
  0.1663990508262769  0.3331781652663590  0.3386101398704163
  0.3330997916514085  0.1664818505388809  0.3386119662377700
  0.1664467463750801  0.8331990307101741  0.3386132742800130
  0.3331053993897595  0.6665121894136670  0.3385085076592522
  0.6664326417459836  0.3331812514847485  0.3385083948878087
  0.8331201115547034  0.1665257792816285  0.3386125595816387
  0.6664299717762829  0.8331566715296802  0.3386082334840378
  0.8330750866998280  0.6665106309143719  0.3386072897891165
 
  0.00000000E+00  0.00000000E+00  0.00000000E+00
  0.00000000E+00  0.00000000E+00  0.00000000E+00
  0.00000000E+00  0.00000000E+00  0.00000000E+00
  0.00000000E+00  0.00000000E+00  0.00000000E+00
  0.00000000E+00  0.00000000E+00  0.00000000E+00
  0.00000000E+00  0.00000000E+00  0.00000000E+00
  0.00000000E+00  0.00000000E+00  0.00000000E+00
  0.00000000E+00  0.00000000E+00  0.00000000E+00
  0.00000000E+00  0.00000000E+00  0.00000000E+00
  0.00000000E+00  0.00000000E+00  0.00000000E+00
  0.00000000E+00  0.00000000E+00  0.00000000E+00
  0.00000000E+00  0.00000000E+00  0.00000000E+00
  0.00000000E+00  0.00000000E+00  0.00000000E+00
  0.00000000E+00  0.00000000E+00  0.00000000E+00
  0.00000000E+00  0.00000000E+00  0.00000000E+00
