Graphene-Borophene Hollow 1 with lattice
   1.00000000000000     
     4.3171366378654268    2.4925000000000002    0.0000000000000000
    -4.3171366378654268    2.4925000000000002    0.0000000000000000
     0.0000000000000000    0.0000000000000000   15.0000000000000000
   B    C 
     8     8
Direct
  0.6760803079745273 -0.0065590186069309  0.1675721135711657
  0.3371188721051349 -0.0062568228032025  0.1675722866093438
  0.0065590186069309  0.3239186920254751  0.1675721135711657
  0.0062568228032025  0.6628801278948679  0.1675722866093438
  0.3371057037655994  0.3242317565430463  0.1674346182613898
  0.6757672434569562  0.6628932962344037  0.1674346182613898
  0.6730431192360016  0.3269558807640006  0.1614881701889279
  0.3395046624438638  0.6604943375561385  0.1735350082381472
  0.2713255994692071  0.2286312008748841  0.4021114667209482
  0.4380609849496546  0.0620849034052013  0.4020799772728186
  0.2713562342231102  0.7286427657768915  0.4021015589799062
  0.4380664824092267  0.5619325175907759  0.4021110070512085
  0.7713580695777994  0.2286409304222035  0.4021068619336544
  0.9379968721477966  0.0620021278522058  0.4019164687368333
  0.7713677991251185  0.7286734005307957  0.4021114667209482
  0.9379140965948014  0.5619380150503474  0.4020799772728186
 
  0.00000000E+00  0.00000000E+00  0.00000000E+00
  0.00000000E+00  0.00000000E+00  0.00000000E+00
  0.00000000E+00  0.00000000E+00  0.00000000E+00
  0.00000000E+00  0.00000000E+00  0.00000000E+00
  0.00000000E+00  0.00000000E+00  0.00000000E+00
  0.00000000E+00  0.00000000E+00  0.00000000E+00
  0.00000000E+00  0.00000000E+00  0.00000000E+00
  0.00000000E+00  0.00000000E+00  0.00000000E+00
  0.00000000E+00  0.00000000E+00  0.00000000E+00
  0.00000000E+00  0.00000000E+00  0.00000000E+00
  0.00000000E+00  0.00000000E+00  0.00000000E+00
  0.00000000E+00  0.00000000E+00  0.00000000E+00
  0.00000000E+00  0.00000000E+00  0.00000000E+00
  0.00000000E+00  0.00000000E+00  0.00000000E+00
  0.00000000E+00  0.00000000E+00  0.00000000E+00
  0.00000000E+00  0.00000000E+00  0.00000000E+00
