Graphene-B4C3 Hollow 1 with lattice para
   1.00000000000000     
     4.1976251321431741    2.4235000000000002    0.0000000000000000
    -4.1976251321431741    2.4235000000000002    0.0000000000000000
     0.0000000000000000    0.0000000000000000   15.0000000000000000
   B    C 
     4    11
Direct
  0.0381840593540482 -0.0278770548024314  0.0972330049254362
  0.3934885787679572 -0.0279387972905883  0.0997449163841997
  0.0379251200005307  0.3271261088489462  0.0999718830639730
  0.6831790063360720  0.6167953300902671  0.0999264768397564
  0.3622619564727391  0.2953839481670730  0.0994305087565550
  0.7152103675306424 -0.0270155326539550  0.0996841642224029
  0.0380011484062014  0.6484294000618973  0.0994843094074033
  0.0811633246437518  0.4155802140686138  0.3394450572361779
  0.2477687599267291  0.2489934261980615  0.3396886331682620
  0.0813078485904747  0.9158001485869210  0.3395431837406015
  0.2479300607711092  0.7490542398570031  0.3395710013829260
  0.5813585019392217  0.4156675384618961  0.3394958762190752
  0.7480009718494947  0.2492306959401359  0.3394562948740147
  0.5812522781958940  0.9155845567688661  0.3395064813935165
  0.7478175727706849  0.7490642221417603  0.3395975417190215
 
  0.00000000E+00  0.00000000E+00  0.00000000E+00
  0.00000000E+00  0.00000000E+00  0.00000000E+00
  0.00000000E+00  0.00000000E+00  0.00000000E+00
  0.00000000E+00  0.00000000E+00  0.00000000E+00
  0.00000000E+00  0.00000000E+00  0.00000000E+00
  0.00000000E+00  0.00000000E+00  0.00000000E+00
  0.00000000E+00  0.00000000E+00  0.00000000E+00
  0.00000000E+00  0.00000000E+00  0.00000000E+00
  0.00000000E+00  0.00000000E+00  0.00000000E+00
  0.00000000E+00  0.00000000E+00  0.00000000E+00
  0.00000000E+00  0.00000000E+00  0.00000000E+00
  0.00000000E+00  0.00000000E+00  0.00000000E+00
  0.00000000E+00  0.00000000E+00  0.00000000E+00
  0.00000000E+00  0.00000000E+00  0.00000000E+00
  0.00000000E+00  0.00000000E+00  0.00000000E+00
