Graphene-B4C3 Hollow 2 with lattice para
   1.00000000000000     
     4.2062853861810181    2.4285000000000001    0.0000000000000000
    -4.2062853861810181    2.4285000000000001    0.0000000000000000
     0.0000000000000000    0.0000000000000000   15.0000000000000000
   B    C 
     4    11
Direct
  0.0043910014398048  0.0029198477763564  0.0996103135148723
  0.3595324663246517  0.0029262954874362  0.1009357845660080
  0.0043996163502053  0.3580615665630867  0.1009378769668058
  0.6492574771879280  0.6477842355812816  0.1009414753773060
  0.3279669124590034  0.3264919506506136  0.1007198698799757
  0.6808308744500483  0.0029288209093670  0.1007188748940062
  0.0044035454437299  0.6793570131626557  0.1007193085586776
  0.1664594200463739  0.3332018256697688  0.3383579544218934
  0.3331454116763792  0.1665154793870409  0.3383598747491605
  0.1665003337422106  0.8332250535544605  0.3383619799773473
  0.3331471387411683  0.6665380975624888  0.3382532198239283
  0.6664809089375451  0.3332030337500423  0.3382529975098483
  0.8331676888178052  0.1665563041203245  0.3383616046793600
  0.6664822397851697  0.8331856217845589  0.3383578662127995
  0.8331289645979850  0.6665388540405310  0.3383569988680386
 
  0.00000000E+00  0.00000000E+00  0.00000000E+00
  0.00000000E+00  0.00000000E+00  0.00000000E+00
  0.00000000E+00  0.00000000E+00  0.00000000E+00
  0.00000000E+00  0.00000000E+00  0.00000000E+00
  0.00000000E+00  0.00000000E+00  0.00000000E+00
  0.00000000E+00  0.00000000E+00  0.00000000E+00
  0.00000000E+00  0.00000000E+00  0.00000000E+00
  0.00000000E+00  0.00000000E+00  0.00000000E+00
  0.00000000E+00  0.00000000E+00  0.00000000E+00
  0.00000000E+00  0.00000000E+00  0.00000000E+00
  0.00000000E+00  0.00000000E+00  0.00000000E+00
  0.00000000E+00  0.00000000E+00  0.00000000E+00
  0.00000000E+00  0.00000000E+00  0.00000000E+00
  0.00000000E+00  0.00000000E+00  0.00000000E+00
  0.00000000E+00  0.00000000E+00  0.00000000E+00
