Graphene-Borophene Bridge with lattice p
   1.00000000000000     
     4.3431173999789596    2.5074999999999998    0.0000000000000000
    -4.3431173999789596    2.5074999999999998    0.0000000000000000
     0.0000000000000000    0.0000000000000000   15.0000000000000000
   B    C 
     8     8
Direct
  0.6695709118606165 -0.0000422014226656  0.1642086455010429
  0.3307820185993675  0.0000569266209126  0.1644044275982627
  0.0000422014226656  0.3304280881393859  0.1642086455010429
 -0.0000569266209126  0.6692169814006350  0.1644044275982627
  0.3308323004332082  0.3307302342175629  0.1644333369206889
  0.6692687657824392  0.6691666995667943  0.1644333369206889
  0.6666271670631233  0.3333718329368790  0.1811567267618578
  0.3332757013453018  0.6667232986547005  0.1628772642635913
  0.2530727406376622  0.2532738777913051  0.4032533784093743
  0.4187755226103682  0.0823215221820832  0.4023364160574853
  0.2503979212331886  0.7496010787668140  0.4017265586803367
  0.4158901177655789  0.5841088822344237  0.4027185168740762
  0.7480360560169539  0.2519629439830483  0.4029621084984562
  0.9157425684905244  0.0842564315094780  0.4038197492813455
  0.7467251222086974  0.7469262593623404  0.4032533784093743
  0.9176774778179193  0.5812234773896344  0.4023364160574852
 
  0.00000000E+00  0.00000000E+00  0.00000000E+00
  0.00000000E+00  0.00000000E+00  0.00000000E+00
  0.00000000E+00  0.00000000E+00  0.00000000E+00
  0.00000000E+00  0.00000000E+00  0.00000000E+00
  0.00000000E+00  0.00000000E+00  0.00000000E+00
  0.00000000E+00  0.00000000E+00  0.00000000E+00
  0.00000000E+00  0.00000000E+00  0.00000000E+00
  0.00000000E+00  0.00000000E+00  0.00000000E+00
  0.00000000E+00  0.00000000E+00  0.00000000E+00
  0.00000000E+00  0.00000000E+00  0.00000000E+00
  0.00000000E+00  0.00000000E+00  0.00000000E+00
  0.00000000E+00  0.00000000E+00  0.00000000E+00
  0.00000000E+00  0.00000000E+00  0.00000000E+00
  0.00000000E+00  0.00000000E+00  0.00000000E+00
  0.00000000E+00  0.00000000E+00  0.00000000E+00
  0.00000000E+00  0.00000000E+00  0.00000000E+00
