Graphene-Borophene Bridge with lattice p
   1.00000000000000     
     4.3136725362502881    2.4904999999999999    0.0000000000000000
    -4.3136725362502881    2.4904999999999999    0.0000000000000000
     0.0000000000000000    0.0000000000000000   15.0000000000000000
   B    C 
     8     8
Direct
  0.6705466127939702 -0.0021603569348655  0.1673283983897190
  0.3333282767885458 -0.0019925975907705  0.1668974425637458
  0.0021603569348655  0.3294523872060316  0.1673283983897190
  0.0019925975907705  0.6666707232114565  0.1668974425637458
  0.3332268906795223  0.3293179084037242  0.1660934968757433
  0.6706810915962786  0.6667721093204807  0.1660934968757433
  0.6684854878116729  0.3315135121883300  0.1555218779314823
  0.3350960608709739  0.6649029391290289  0.1791831521137717
  0.2480520702521693  0.2518716488985948  0.4021836294503735
  0.4146864173358253  0.0853029851067098  0.4020788104067417
  0.2480907267840834  0.7519082732159189  0.4021642268981502
  0.4147505108520120  0.5852484891479901  0.4023563283932191
  0.7480516284231218  0.2519473715768806  0.4020598708577359
  0.9146875719581903  0.0853114280418125  0.4020843217663658
  0.7481273511014079  0.7519469297478327  0.4021836294503735
  0.9146960148932929  0.5853125826641774  0.4020788104067417
 
  0.00000000E+00  0.00000000E+00  0.00000000E+00
  0.00000000E+00  0.00000000E+00  0.00000000E+00
  0.00000000E+00  0.00000000E+00  0.00000000E+00
  0.00000000E+00  0.00000000E+00  0.00000000E+00
  0.00000000E+00  0.00000000E+00  0.00000000E+00
  0.00000000E+00  0.00000000E+00  0.00000000E+00
  0.00000000E+00  0.00000000E+00  0.00000000E+00
  0.00000000E+00  0.00000000E+00  0.00000000E+00
  0.00000000E+00  0.00000000E+00  0.00000000E+00
  0.00000000E+00  0.00000000E+00  0.00000000E+00
  0.00000000E+00  0.00000000E+00  0.00000000E+00
  0.00000000E+00  0.00000000E+00  0.00000000E+00
  0.00000000E+00  0.00000000E+00  0.00000000E+00
  0.00000000E+00  0.00000000E+00  0.00000000E+00
  0.00000000E+00  0.00000000E+00  0.00000000E+00
  0.00000000E+00  0.00000000E+00  0.00000000E+00
