Graphene-B4C3 Top with lattice parameter
   1.00000000000000     
     4.1870851829504421    2.4292438071608866    0.0032910312082693
    -4.1833280649872471    2.4227451853574187    0.0003364623225759
     0.0054171321010528    0.0116551816214858    7.3202259315282507
   B    C 
     4    11
Direct
  0.0025292769869967  0.0010594361319527 -0.0044148824519307
  0.3581079094334044  0.0049341712231606 -0.0348574078067877
  0.0006863569986635  0.3542117106622690 -0.0346880183615414
  0.6503795580215748  0.6471582573730227 -0.0350626430262422
  0.3267708363504359  0.3240010338725927 -0.0266865913906080
  0.6808706556954044  0.0041878049229138 -0.0282312624810761
  0.0006067384538846  0.6772248947369182 -0.0284689746895104
  0.0016536324699472  0.5005408917219045  0.4410873781287484
  0.1664949300167434  0.3341255806846385  0.4393337153347233
  0.0012805462430390  0.0011255667380165  0.4373419695852827
  0.1675664230445675  0.8337625928389440  0.4393387689694356
  0.5021022600014969  0.5022064276665973  0.4411361428843500
  0.6682824019130097  0.3342834450618363  0.4406905658762775
  0.5016290657214800  0.0003983303693447  0.4411180993515110
  0.6670000753160440  0.8335471893292138  0.4393424734107169
 
  0.00000000E+00  0.00000000E+00  0.00000000E+00
  0.00000000E+00  0.00000000E+00  0.00000000E+00
  0.00000000E+00  0.00000000E+00  0.00000000E+00
  0.00000000E+00  0.00000000E+00  0.00000000E+00
  0.00000000E+00  0.00000000E+00  0.00000000E+00
  0.00000000E+00  0.00000000E+00  0.00000000E+00
  0.00000000E+00  0.00000000E+00  0.00000000E+00
  0.00000000E+00  0.00000000E+00  0.00000000E+00
  0.00000000E+00  0.00000000E+00  0.00000000E+00
  0.00000000E+00  0.00000000E+00  0.00000000E+00
  0.00000000E+00  0.00000000E+00  0.00000000E+00
  0.00000000E+00  0.00000000E+00  0.00000000E+00
  0.00000000E+00  0.00000000E+00  0.00000000E+00
  0.00000000E+00  0.00000000E+00  0.00000000E+00
  0.00000000E+00  0.00000000E+00  0.00000000E+00
