Graphene-B4C3 Top with lattice parameter 4.600 and distance 3.400
            1.0
            3.9837168574084174    2.2999999999999998    0.0000000000000000
           -3.9837168574084174    2.2999999999999998    0.0000000000000000
            0.0000000000000000    0.0000000000000000   15.0000000000000000
            B   C
            4   11
            Direct
            0.0041536073678543  0.0026721015370299  0.1203413379052876
            0.3569533512947416  0.0028550305604824  0.0974889342262841
            0.0042385768318738  0.3555069917146056  0.0974925637235273
            0.6514229529441167  0.6500655703952489  0.0974768786615599
            0.3280864628224336  0.3267193752228721  0.1003050777105869
            0.6802777482657802  0.0027808524732649  0.1002756210064604
            0.0041653004731970  0.6788380780964971  0.1002655867662980
            -0.0000006666666674  0.4999996666666698  0.3266666666666667
            0.1666663333333366  0.3333326666666659  0.3266666666666667
            -0.0000006666666674  0.9999996666666698  0.3266666666666667
            0.1666663333333366  0.8333326666666659  0.3266666666666667
            0.4999993333333327  0.4999996666666698  0.3266666666666667
            0.6666663333333366  0.3333326666666659  0.3266666666666667
            0.4999993333333327  0.9999996666666698  0.3266666666666667
            0.6666663333333366  0.8333326666666659  0.3266666666666667