Graphene-B4C3 Hollow 1 with lattice para
   1.00000000000000     
     4.1950270559318197    2.4219999999999997    0.0000000000000000
    -4.1950270559318197    2.4219999999999997    0.0000000000000000
     0.0000000000000000    0.0000000000000000   15.0000000000000000
   B    C 
     4    11
Direct
  0.0221901002443255 -0.0132000157666265  0.0993256487450764
  0.3770126276820934 -0.0133377937097530  0.1008693144171563
  0.0220864667650760  0.3415838442864716  0.1009733190347936
  0.6673961363518389  0.6316771899814909  0.1009566059316196
  0.3461488625288368  0.3102181928628402  0.1005860531520901
  0.6986346332533971 -0.0130833622385223  0.1009437823498059
  0.0222125355297993  0.6629523740370546  0.1006291623147721
  0.0954294525187628  0.4029878891701658  0.3384217028670914
  0.2620262349157480  0.2363118024608438  0.3384724098144212
  0.0953390203932550  0.9029405441163980  0.3384744295590691
  0.2619804411937994  0.7363957063508476  0.3384007919841834
  0.5952391348235238  0.4029911220969152  0.3384593566867108
  0.7618973368001224  0.2362596546385342  0.3383554029195183
  0.5952868609446383  0.9028914333522468  0.3385146306705671
  0.7619697116103340  0.7362898628055617  0.3383967228864455
 
  0.00000000E+00  0.00000000E+00  0.00000000E+00
  0.00000000E+00  0.00000000E+00  0.00000000E+00
  0.00000000E+00  0.00000000E+00  0.00000000E+00
  0.00000000E+00  0.00000000E+00  0.00000000E+00
  0.00000000E+00  0.00000000E+00  0.00000000E+00
  0.00000000E+00  0.00000000E+00  0.00000000E+00
  0.00000000E+00  0.00000000E+00  0.00000000E+00
  0.00000000E+00  0.00000000E+00  0.00000000E+00
  0.00000000E+00  0.00000000E+00  0.00000000E+00
  0.00000000E+00  0.00000000E+00  0.00000000E+00
  0.00000000E+00  0.00000000E+00  0.00000000E+00
  0.00000000E+00  0.00000000E+00  0.00000000E+00
  0.00000000E+00  0.00000000E+00  0.00000000E+00
  0.00000000E+00  0.00000000E+00  0.00000000E+00
  0.00000000E+00  0.00000000E+00  0.00000000E+00
