Graphene-BC3 Hollow with lattice paramet
   1.00000000000000     
     4.3682321366887082    2.5219999999999998    0.0000000000000000
    -4.3682321366887082    2.5219999999999998    0.0000000000000000
     0.0000000000000000    0.0000000000000000   15.0000000000000000
   B    C 
     2    14
Direct
  0.3384219176515509  0.6692084550090901  0.1148561653888248
  0.6717542252189369  0.3358739509139557  0.1145021757361590
  0.1644877603377568  0.3213410518149848  0.1144503325903258
  0.3237968006702143  0.1618962653072134  0.1144747288411586
  0.1644855173755170  0.8431381399874127  0.1144468575036985
  0.8457296242243497  0.1618936932760068  0.1144424971555323
  0.6862738329253119  0.8431338875555195  0.1144123472331256
  0.8457282523997155  0.6838311768588095  0.1144389125158237
  0.3335115645347089  0.1667578238516355  0.3367704303726857
  0.4997447131990747 -0.0000324352306517  0.3367322296638572
  0.3334665934351194  0.6667353473492028  0.3363188924281518
  0.4997447348498537  0.4997822427394473  0.3367321886286097
  0.8334588652130367  0.1667594633959612  0.3367690139383137
  0.9996883334894562  0.9998467259202065  0.3367417988181571
  0.8334588373607473  0.6667034470130357  0.3367689752795123
  0.9995737604479841  0.4997894309048660  0.3367424539060649
 
  0.00000000E+00  0.00000000E+00  0.00000000E+00
  0.00000000E+00  0.00000000E+00  0.00000000E+00
  0.00000000E+00  0.00000000E+00  0.00000000E+00
  0.00000000E+00  0.00000000E+00  0.00000000E+00
  0.00000000E+00  0.00000000E+00  0.00000000E+00
  0.00000000E+00  0.00000000E+00  0.00000000E+00
  0.00000000E+00  0.00000000E+00  0.00000000E+00
  0.00000000E+00  0.00000000E+00  0.00000000E+00
  0.00000000E+00  0.00000000E+00  0.00000000E+00
  0.00000000E+00  0.00000000E+00  0.00000000E+00
  0.00000000E+00  0.00000000E+00  0.00000000E+00
  0.00000000E+00  0.00000000E+00  0.00000000E+00
  0.00000000E+00  0.00000000E+00  0.00000000E+00
  0.00000000E+00  0.00000000E+00  0.00000000E+00
  0.00000000E+00  0.00000000E+00  0.00000000E+00
  0.00000000E+00  0.00000000E+00  0.00000000E+00
