Graphene-Borophene Bridge with lattice p
   1.00000000000000     
     4.2868257487329702    2.4749999999999996    0.0000000000000000
    -4.2868257487329702    2.4749999999999996    0.0000000000000000
     0.0000000000000000    0.0000000000000000   15.0000000000000000
   B    C 
     8     8
Direct
  0.6730072752982985 -0.0023796493502401  0.1659865439900890
  0.3339949069889258 -0.0029020171317765  0.1667275177660239
  0.0023796493502401  0.3269917247017042  0.1659865439900890
  0.0029020171317765  0.6660040930110764  0.1667275177660239
  0.3325850578574731  0.3266289357577977  0.1675312785390635
  0.6733700642422044  0.6674139421425288  0.1675312785390635
  0.6696039583398123  0.3303950416601906  0.1758777618682212
  0.3364641491929594  0.6635348508070431  0.1593706289500956
  0.2467283944999068  0.2529011301624427  0.4021536805759474
  0.4137445155385929  0.0866851922200809  0.4020727151602057
  0.2470916701679649  0.7529073298320379  0.4019105561494899
  0.4136595774304814  0.5863394225695215  0.4021082161708997
  0.7470459646349105  0.2529530353650924  0.4021363884179356
  0.9136707883756754  0.0863282116243265  0.4021863097140715
  0.7470978698375599  0.7532706055000955  0.4021536805759474
  0.9133138077799219  0.5862544844614096  0.4020727151602057
 
  0.00000000E+00  0.00000000E+00  0.00000000E+00
  0.00000000E+00  0.00000000E+00  0.00000000E+00
  0.00000000E+00  0.00000000E+00  0.00000000E+00
  0.00000000E+00  0.00000000E+00  0.00000000E+00
  0.00000000E+00  0.00000000E+00  0.00000000E+00
  0.00000000E+00  0.00000000E+00  0.00000000E+00
  0.00000000E+00  0.00000000E+00  0.00000000E+00
  0.00000000E+00  0.00000000E+00  0.00000000E+00
  0.00000000E+00  0.00000000E+00  0.00000000E+00
  0.00000000E+00  0.00000000E+00  0.00000000E+00
  0.00000000E+00  0.00000000E+00  0.00000000E+00
  0.00000000E+00  0.00000000E+00  0.00000000E+00
  0.00000000E+00  0.00000000E+00  0.00000000E+00
  0.00000000E+00  0.00000000E+00  0.00000000E+00
  0.00000000E+00  0.00000000E+00  0.00000000E+00
  0.00000000E+00  0.00000000E+00  0.00000000E+00
