Graphene-B4C3 Bridge with lattice parame
   1.00000000000000     
     4.1993571829507426    2.4245000000000001    0.0000000000000000
    -4.1993571829507426    2.4245000000000001    0.0000000000000000
     0.0000000000000000    0.0000000000000000   15.0000000000000000
   B    C 
     4    11
Direct
  0.0329239407825028 -0.0245789936104118  0.1054413307901690
  0.3879731793346852 -0.0243437804270560  0.1002115367344913
  0.0326484885280927  0.3302856372238980  0.1004773279146685
  0.6780777954608543  0.6204734115588731  0.1004293158706371
  0.3564057522816730  0.2989800668872979  0.1007709952525722
  0.7095332895401001 -0.0244097669620693  0.1010728078981704
  0.0330184261622232  0.6519954744232936  0.1008493111064123
  0.0582218718615941  0.4405342388833646  0.3369611719281924
  0.2248600538972929  0.2739521064951148  0.3371326535935797
  0.0581976869933296  0.9405397784232230  0.3371268569806191
  0.2248902815053739  0.7738963950044372  0.3369910086296335
  0.5581596961418270  0.4405388693687278  0.3370609176098380
  0.7248090595827381  0.2738806376623517  0.3367926973249886
  0.5581387981641602  0.9405120387985557  0.3370025779313120
  0.7247690130968742  0.7738445529370970  0.3370588237680517
 
  0.00000000E+00  0.00000000E+00  0.00000000E+00
  0.00000000E+00  0.00000000E+00  0.00000000E+00
  0.00000000E+00  0.00000000E+00  0.00000000E+00
  0.00000000E+00  0.00000000E+00  0.00000000E+00
  0.00000000E+00  0.00000000E+00  0.00000000E+00
  0.00000000E+00  0.00000000E+00  0.00000000E+00
  0.00000000E+00  0.00000000E+00  0.00000000E+00
  0.00000000E+00  0.00000000E+00  0.00000000E+00
  0.00000000E+00  0.00000000E+00  0.00000000E+00
  0.00000000E+00  0.00000000E+00  0.00000000E+00
  0.00000000E+00  0.00000000E+00  0.00000000E+00
  0.00000000E+00  0.00000000E+00  0.00000000E+00
  0.00000000E+00  0.00000000E+00  0.00000000E+00
  0.00000000E+00  0.00000000E+00  0.00000000E+00
  0.00000000E+00  0.00000000E+00  0.00000000E+00
