Graphene-Borophene Bridge with lattice p
   1.00000000000000     
     4.2695052406572822    2.4649999999999999    0.0000000000000000
    -4.2695052406572822    2.4649999999999999    0.0000000000000000
     0.0000000000000000    0.0000000000000000   15.0000000000000000
   B    C 
     8     8
Direct
  0.6707955079287579 -0.0018879521332173  0.1645850011962437
  0.3333093856860880 -0.0016814765859801  0.1659690472889908
  0.0018879521332173  0.3292034920712451  0.1645850011962437
  0.0016814765859801  0.6666896143139152  0.1659690472889908
  0.3326255718908988  0.3294353670940883  0.1689095474563192
  0.6705636329059144  0.6673734281091040  0.1689095474563192
  0.6679379820478935  0.3320610179521093  0.1809103061555961
  0.3344778820111160  0.6655211179888865  0.1510812357415294
  0.2483930942077717  0.2517105493662603  0.4025526857513310
  0.4149892796098865  0.0849419310113352  0.4029084173061598
  0.2482750210515929  0.7517239789484097  0.4030183610565075
  0.4149749952191011  0.5850240047809019  0.4025960468786571
  0.7483493317825245  0.2516496682174783  0.4026532734125485
  0.9150530339835522  0.0849459660164504  0.4024247120904444
  0.7482884506337421  0.7516059057922306  0.4025526857513309
  0.9150570689886673  0.5850097203901161  0.4029084173061598
 
  0.00000000E+00  0.00000000E+00  0.00000000E+00
  0.00000000E+00  0.00000000E+00  0.00000000E+00
  0.00000000E+00  0.00000000E+00  0.00000000E+00
  0.00000000E+00  0.00000000E+00  0.00000000E+00
  0.00000000E+00  0.00000000E+00  0.00000000E+00
  0.00000000E+00  0.00000000E+00  0.00000000E+00
  0.00000000E+00  0.00000000E+00  0.00000000E+00
  0.00000000E+00  0.00000000E+00  0.00000000E+00
  0.00000000E+00  0.00000000E+00  0.00000000E+00
  0.00000000E+00  0.00000000E+00  0.00000000E+00
  0.00000000E+00  0.00000000E+00  0.00000000E+00
  0.00000000E+00  0.00000000E+00  0.00000000E+00
  0.00000000E+00  0.00000000E+00  0.00000000E+00
  0.00000000E+00  0.00000000E+00  0.00000000E+00
  0.00000000E+00  0.00000000E+00  0.00000000E+00
  0.00000000E+00  0.00000000E+00  0.00000000E+00
