Graphene-Borophene Top with lattice para
   1.00000000000000     
     4.2435244785437494    2.4500000000000002    0.0000000000000000
    -4.2435244785437494    2.4500000000000002    0.0000000000000000
     0.0000000000000000    0.0000000000000000   15.0000000000000000
   B    C 
     8     8
Direct
  0.6690352108224509 -0.0000815300567428  0.1674817132219289
  0.3308822591208087 -0.0000815300567428  0.1674817132219289
  0.0000815300567428  0.3309637891775518  0.1674817132219289
  0.0000815300567428  0.6691167408791936  0.1674817132219289
  0.3308822591208087  0.3309637891775518  0.1674817132219289
  0.6690352108224509  0.6691167408791936  0.1674817132219289
  0.6666659999999993  0.3333330000000032  0.1835907333305873
  0.3333330000000032  0.6666659999999993  0.1507879661799176
  0.1666715780497212  0.3333441560994469  0.4002648972056173
  0.3332882843805163  0.1666436421902558  0.4003637998914337
  0.1666715780497212  0.8333274219502816  0.4002648972056173
  0.3333330000000032  0.6666659999999993  0.4001453743670724
  0.6666659999999993  0.3333330000000032  0.4005662221663901
  0.8333553578097463  0.1666436421902559  0.4003637998914337
  0.6666548439005557  0.8333274219502816  0.4002648972056174
  0.8333553578097463  0.6667107156194862  0.4003637998914337
 
  0.00000000E+00  0.00000000E+00  0.00000000E+00
  0.00000000E+00  0.00000000E+00  0.00000000E+00
  0.00000000E+00  0.00000000E+00  0.00000000E+00
  0.00000000E+00  0.00000000E+00  0.00000000E+00
  0.00000000E+00  0.00000000E+00  0.00000000E+00
  0.00000000E+00  0.00000000E+00  0.00000000E+00
  0.00000000E+00  0.00000000E+00  0.00000000E+00
  0.00000000E+00  0.00000000E+00  0.00000000E+00
  0.00000000E+00  0.00000000E+00  0.00000000E+00
  0.00000000E+00  0.00000000E+00  0.00000000E+00
  0.00000000E+00  0.00000000E+00  0.00000000E+00
  0.00000000E+00  0.00000000E+00  0.00000000E+00
  0.00000000E+00  0.00000000E+00  0.00000000E+00
  0.00000000E+00  0.00000000E+00  0.00000000E+00
  0.00000000E+00  0.00000000E+00  0.00000000E+00
  0.00000000E+00  0.00000000E+00  0.00000000E+00
