Graphene-B4C3 Hollow 1 with lattice para
   1.00000000000000     
     4.1958930813356048    2.4224999999999999    0.0000000000000000
    -4.1958930813356048    2.4224999999999999    0.0000000000000000
     0.0000000000000000    0.0000000000000000   15.0000000000000000
   B    C 
     4    11
Direct
  0.0102237161523228 -0.0026893306132583  0.0982394116850791
  0.3653950781386448 -0.0027282398170113  0.1013825528511777
  0.0102070674947474  0.3523477295992730  0.1014686824941130
  0.6552553766789673  0.6421681929209292  0.1014447961341657
  0.3340419117549515  0.3207802745628304  0.1009082590920076
  0.6868113247873699 -0.0025081408848143  0.1010946641868453
  0.0103923094671503  0.6737304043069381  0.1009435452479191
  0.1057170941480444  0.3936891987214808  0.3382610328611851
  0.2724040671128636  0.2269761109022279  0.3383674564197444
  0.1057879364143685  0.8937617027980558  0.3383067285289468
  0.2724664126895883  0.7270232585161650  0.3382232724825784
  0.6057225409054937  0.3936699939250485  0.3382330534085760
  0.7724025319601284  0.2270233091410644  0.3382647770127255
  0.6056836328485031  0.8936536829470724  0.3383736148836391
  0.7723385550024068  0.7269802974184655  0.3382674860446182
 
  0.00000000E+00  0.00000000E+00  0.00000000E+00
  0.00000000E+00  0.00000000E+00  0.00000000E+00
  0.00000000E+00  0.00000000E+00  0.00000000E+00
  0.00000000E+00  0.00000000E+00  0.00000000E+00
  0.00000000E+00  0.00000000E+00  0.00000000E+00
  0.00000000E+00  0.00000000E+00  0.00000000E+00
  0.00000000E+00  0.00000000E+00  0.00000000E+00
  0.00000000E+00  0.00000000E+00  0.00000000E+00
  0.00000000E+00  0.00000000E+00  0.00000000E+00
  0.00000000E+00  0.00000000E+00  0.00000000E+00
  0.00000000E+00  0.00000000E+00  0.00000000E+00
  0.00000000E+00  0.00000000E+00  0.00000000E+00
  0.00000000E+00  0.00000000E+00  0.00000000E+00
  0.00000000E+00  0.00000000E+00  0.00000000E+00
  0.00000000E+00  0.00000000E+00  0.00000000E+00
