Graphene-B4C3 Bridge with lattice parame
   1.00000000000000     
     4.1915629543166828    2.4199999999999999    0.0000000000000000
    -4.1915629543166828    2.4199999999999999    0.0000000000000000
     0.0000000000000000    0.0000000000000000   15.0000000000000000
   B    C 
     4    11
Direct
  0.0041488953755455  0.0026978418145997  0.1187366839848199
  0.3568295953456102  0.0028073779981381  0.0979362932374999
  0.0041576494389882  0.3554502194980629  0.0980251684027372
  0.6516076613713380  0.6500017471898183  0.0979885996861988
  0.3266821797414907  0.3250320577439695  0.1002667871698167
  0.6819994361413214  0.0028533091666992  0.1003149684381219
  0.0041819828194659  0.6803140980370160  0.1002498720320205
  0.0832851248547967  0.4166573447848757  0.3364673294627771
  0.2498886547269917  0.2499867544444559  0.3365853130883469
  0.0832169163781488  0.9166432817458283  0.3364560989868702
  0.2498374768894496  0.7500615488516822  0.3364268514212145
  0.5833175583769075  0.4166788309299832  0.3364152817661395
  0.7499687276579300  0.2500292564023799  0.3364584510408450
  0.5833996171778367  0.9167524132703899  0.3365611540014729
  0.7501058570375008  0.7501345847887979  0.3364904806144550
 
  0.00000000E+00  0.00000000E+00  0.00000000E+00
  0.00000000E+00  0.00000000E+00  0.00000000E+00
  0.00000000E+00  0.00000000E+00  0.00000000E+00
  0.00000000E+00  0.00000000E+00  0.00000000E+00
  0.00000000E+00  0.00000000E+00  0.00000000E+00
  0.00000000E+00  0.00000000E+00  0.00000000E+00
  0.00000000E+00  0.00000000E+00  0.00000000E+00
  0.00000000E+00  0.00000000E+00  0.00000000E+00
  0.00000000E+00  0.00000000E+00  0.00000000E+00
  0.00000000E+00  0.00000000E+00  0.00000000E+00
  0.00000000E+00  0.00000000E+00  0.00000000E+00
  0.00000000E+00  0.00000000E+00  0.00000000E+00
  0.00000000E+00  0.00000000E+00  0.00000000E+00
  0.00000000E+00  0.00000000E+00  0.00000000E+00
  0.00000000E+00  0.00000000E+00  0.00000000E+00
