Graphene-B4C3 Bridge with lattice parame
   1.00000000000000     
     4.1915629543166828    2.4199999999999999    0.0000000000000000
    -4.1915629543166828    2.4199999999999999    0.0000000000000000
     0.0000000000000000    0.0000000000000000   15.0000000000000000
   B    C 
     4    11
Direct
  0.0045371438033876  0.0024569006653328  0.1055335170529149
  0.3594024294865421  0.0023575069711382  0.1006114456832043
  0.0046652038301111  0.3573243308520987  0.1009668866187539
  0.6499194659753853  0.6473828290533763  0.1008641609050956
  0.3283998977435764  0.3259851267452208  0.1012916790974164
  0.6809761995630219  0.0022969504815243  0.1016526767125575
  0.0046426781512516  0.6786567797637564  0.1013791508864996
  0.0829856400663336  0.4170467487793153  0.3365830449602573
  0.2495904441090636  0.2503095914617962  0.3367513489462518
  0.0830205642665299  0.9171473212220796  0.3366648540237732
  0.2496753498121416  0.7504338302368054  0.3365817166389502
  0.5828841234823662  0.4170706641420123  0.3365883917830102
  0.7495960010866157  0.2504221140114696  0.3365674327240429
  0.5828179921298370  0.9168942489452649  0.3367056281117094
  0.7495141998271579  0.7503157233355062  0.3366373991888986
 
  0.00000000E+00  0.00000000E+00  0.00000000E+00
  0.00000000E+00  0.00000000E+00  0.00000000E+00
  0.00000000E+00  0.00000000E+00  0.00000000E+00
  0.00000000E+00  0.00000000E+00  0.00000000E+00
  0.00000000E+00  0.00000000E+00  0.00000000E+00
  0.00000000E+00  0.00000000E+00  0.00000000E+00
  0.00000000E+00  0.00000000E+00  0.00000000E+00
  0.00000000E+00  0.00000000E+00  0.00000000E+00
  0.00000000E+00  0.00000000E+00  0.00000000E+00
  0.00000000E+00  0.00000000E+00  0.00000000E+00
  0.00000000E+00  0.00000000E+00  0.00000000E+00
  0.00000000E+00  0.00000000E+00  0.00000000E+00
  0.00000000E+00  0.00000000E+00  0.00000000E+00
  0.00000000E+00  0.00000000E+00  0.00000000E+00
  0.00000000E+00  0.00000000E+00  0.00000000E+00
