Graphene-Borophene Top with lattice para
   1.00000000000000     
     4.3197347140767803    2.4940000000000002    0.0000000000000000
    -4.3197347140767803    2.4940000000000002    0.0000000000000000
     0.0000000000000000    0.0000000000000000   15.0000000000000000
   B    C 
     8     8
Direct
  0.6684473636356121  0.0000104416782185  0.1674494615110562
  0.3315620780426084  0.0000104416782185  0.1674494615110562
 -0.0000104416782185  0.3315516363643900  0.1674494615110562
 -0.0000104416782185  0.6684369219573943  0.1674494615110562
  0.3315620780426084  0.3315516363643900  0.1674494615110562
  0.6684473636356121  0.6684369219573942  0.1674494615110562
  0.6666659999999993  0.3333330000000032  0.1548787684415339
  0.3333330000000032  0.6666659999999993  0.1800771440553376
  0.1666474836239334  0.3332959672478715  0.4003022837586240
  0.3333352754463616  0.1666671377231785  0.4002297942731835
  0.1666474836239334  0.8333515163760691  0.4003022837586240
  0.3333330000000032  0.6666659999999993  0.4003750084257430
  0.6666659999999993  0.3333330000000032  0.4002427425823161
  0.8333318622768239  0.1666671377231785  0.4002297942731835
  0.6667030327521314  0.8333515163760691  0.4003022837586240
  0.8333318622768239  0.6666637245536405  0.4002297942731835
 
  0.00000000E+00  0.00000000E+00  0.00000000E+00
  0.00000000E+00  0.00000000E+00  0.00000000E+00
  0.00000000E+00  0.00000000E+00  0.00000000E+00
  0.00000000E+00  0.00000000E+00  0.00000000E+00
  0.00000000E+00  0.00000000E+00  0.00000000E+00
  0.00000000E+00  0.00000000E+00  0.00000000E+00
  0.00000000E+00  0.00000000E+00  0.00000000E+00
  0.00000000E+00  0.00000000E+00  0.00000000E+00
  0.00000000E+00  0.00000000E+00  0.00000000E+00
  0.00000000E+00  0.00000000E+00  0.00000000E+00
  0.00000000E+00  0.00000000E+00  0.00000000E+00
  0.00000000E+00  0.00000000E+00  0.00000000E+00
  0.00000000E+00  0.00000000E+00  0.00000000E+00
  0.00000000E+00  0.00000000E+00  0.00000000E+00
  0.00000000E+00  0.00000000E+00  0.00000000E+00
  0.00000000E+00  0.00000000E+00  0.00000000E+00
