Graphene-B4C3 Top with lattice parameter
   1.00000000000000     
     4.2149456402188630    2.4335000000000000    0.0000000000000000
    -4.2149456402188630    2.4335000000000000    0.0000000000000000
     0.0000000000000000    0.0000000000000000   15.0000000000000000
   B    C 
     4    11
Direct
  0.0040543434384476  0.0026991068076945  0.1008202259933423
  0.3592312904454336  0.0029940948137160  0.1003974771829020
  0.0037422497963263  0.3575673469285481  0.1003976593112818
  0.6491741043038145  0.6475111765315985  0.1003956606679284
  0.3275918333508591  0.3259322182996623  0.1003724749887612
  0.6808073410410909  0.0029907536888596  0.1003715016490320
  0.0037473230498724  0.6791473443042670  0.1003685289430897
  0.0001352069839788  0.5000632114054073  0.3350514645975056
  0.1667850943138680  0.3334536261928647  0.3350859102615319
  0.0001184484907552  0.0000732205020734  0.3350186583334867
  0.1668304004319091  0.8334073398406443  0.3350894680886200
  0.5001308024775496  0.5001036513834909  0.3350541086644040
  0.6667848172304800  0.3334081635780938  0.3349538935563429
  0.5000890367473543  0.0000563475967248  0.3350497365727093
  0.6667383745649524  0.8333597314596801  0.3350858978557436
 
  0.00000000E+00  0.00000000E+00  0.00000000E+00
  0.00000000E+00  0.00000000E+00  0.00000000E+00
  0.00000000E+00  0.00000000E+00  0.00000000E+00
  0.00000000E+00  0.00000000E+00  0.00000000E+00
  0.00000000E+00  0.00000000E+00  0.00000000E+00
  0.00000000E+00  0.00000000E+00  0.00000000E+00
  0.00000000E+00  0.00000000E+00  0.00000000E+00
  0.00000000E+00  0.00000000E+00  0.00000000E+00
  0.00000000E+00  0.00000000E+00  0.00000000E+00
  0.00000000E+00  0.00000000E+00  0.00000000E+00
  0.00000000E+00  0.00000000E+00  0.00000000E+00
  0.00000000E+00  0.00000000E+00  0.00000000E+00
  0.00000000E+00  0.00000000E+00  0.00000000E+00
  0.00000000E+00  0.00000000E+00  0.00000000E+00
  0.00000000E+00  0.00000000E+00  0.00000000E+00
