Graphene-BC3 Top with lattice parameter 
   1.00000000000000     
     4.4080693052627904    2.5449999999999986    0.0000000000000000
    -4.4080693052627904    2.5449999999999986    0.0000000000000000
     0.0000000000000000    0.0000000000000000   15.0000000000000000
   B    C 
     2    14
Direct
  0.3384672050403312  0.6692323545271056  0.0997869299662975
  0.6717980081096346  0.3358969501675518  0.0997869662909811
  0.1644625887296590  0.3212189167913186  0.0994835695627136
  0.3237903651294501  0.1618919494545813  0.0994851957249984
  0.1644610438000636  0.8432393908175473  0.0994833789220361
  0.8458138490676486  0.1618927517434874  0.0994804422926049
  0.6864906126196004  0.8432458599891079  0.0994783368925466
  0.8458114666971713  0.6839189884349250  0.0994794588735583
  0.1664260030046239  0.3330579092437177  0.3293152083024634
  0.3329881139158040  0.1664951554444116  0.3293166677962984
  0.1664259731780969  0.8333691007762032  0.3293151523646278
  0.3331940393567780  0.6665981114842070  0.3290270258642669
  0.6665277880013224  0.3332643916599781  0.3290270436041519
  0.8332994611553278  0.1664958753116849  0.3293120634441187
  0.6667360376895158  0.8333685337669857  0.3293104509360911
  0.8332994445049916  0.6668057603871947  0.3293121091622653
 
  0.00000000E+00  0.00000000E+00  0.00000000E+00
  0.00000000E+00  0.00000000E+00  0.00000000E+00
  0.00000000E+00  0.00000000E+00  0.00000000E+00
  0.00000000E+00  0.00000000E+00  0.00000000E+00
  0.00000000E+00  0.00000000E+00  0.00000000E+00
  0.00000000E+00  0.00000000E+00  0.00000000E+00
  0.00000000E+00  0.00000000E+00  0.00000000E+00
  0.00000000E+00  0.00000000E+00  0.00000000E+00
  0.00000000E+00  0.00000000E+00  0.00000000E+00
  0.00000000E+00  0.00000000E+00  0.00000000E+00
  0.00000000E+00  0.00000000E+00  0.00000000E+00
  0.00000000E+00  0.00000000E+00  0.00000000E+00
  0.00000000E+00  0.00000000E+00  0.00000000E+00
  0.00000000E+00  0.00000000E+00  0.00000000E+00
  0.00000000E+00  0.00000000E+00  0.00000000E+00
  0.00000000E+00  0.00000000E+00  0.00000000E+00
