Graphene-Borophene Bridge with lattice p
   1.00000000000000     
     4.3119404854427197    2.4895000000000000    0.0000000000000000
    -4.3119404854427197    2.4895000000000000    0.0000000000000000
     0.0000000000000000    0.0000000000000000   15.0000000000000000
    C 
    8
Direct
  0.2357266783799355  0.2641944448148230  0.3344966072675189
  0.4024150288047370  0.0975452194018031  0.3344969681526223
  0.2357461159916715  0.7642528840083304  0.3346281653068165
  0.4024211067013463  0.5975778932986553  0.3345752813018147
  0.7357734759494267  0.2642255240505755  0.3344792209831873
  0.9024381793584049  0.0975608206415978  0.3343364039660556
  0.7358045551851793  0.7642723216200673  0.3344966072675189
  0.9024537805981994  0.5975839711952661  0.3344969681526223
