Graphene-B4C3 Bridge with lattice parame
   1.00000000000000     
     4.2175437164302156    2.4350000000000001    0.0000000000000000
    -4.2175437164302156    2.4350000000000001    0.0000000000000000
     0.0000000000000000    0.0000000000000000   15.0000000000000000
   B    C 
     4    11
Direct
  0.0464582045436947 -0.0373280190375288  0.1040585133165852
  0.4010622456832155 -0.0365054403181079  0.1004812686208642
  0.0457364659908879  0.3175284480490811  0.1002236223167671
  0.6916885408854552  0.6079424891339913  0.1002681195606928
  0.3694563660513819  0.2857474368648896  0.1008148082293954
  0.7235669005694513 -0.0367513701077768  0.1003588176987614
  0.0458881889309159  0.6395763312585370  0.1007360024467213
  0.0464742162035434  0.4513519100721365  0.3373913302665845
  0.2131024632306261  0.2851316951904908  0.3373767644658379
  0.0466239690165040  0.9515037482046612  0.3372089114973165
  0.2131701905148387  0.7849601022105220  0.3372153672705048
  0.5466349353311510  0.4513835495956793  0.3372751460662188
  0.7131574549136136  0.2850456837023164  0.3371971054992076
  0.5466123833497730  0.9515571297721388  0.3375451977586281
  0.7129948081182699  0.7849569720756673  0.3372283583192507
 
  0.00000000E+00  0.00000000E+00  0.00000000E+00
  0.00000000E+00  0.00000000E+00  0.00000000E+00
  0.00000000E+00  0.00000000E+00  0.00000000E+00
  0.00000000E+00  0.00000000E+00  0.00000000E+00
  0.00000000E+00  0.00000000E+00  0.00000000E+00
  0.00000000E+00  0.00000000E+00  0.00000000E+00
  0.00000000E+00  0.00000000E+00  0.00000000E+00
  0.00000000E+00  0.00000000E+00  0.00000000E+00
  0.00000000E+00  0.00000000E+00  0.00000000E+00
  0.00000000E+00  0.00000000E+00  0.00000000E+00
  0.00000000E+00  0.00000000E+00  0.00000000E+00
  0.00000000E+00  0.00000000E+00  0.00000000E+00
  0.00000000E+00  0.00000000E+00  0.00000000E+00
  0.00000000E+00  0.00000000E+00  0.00000000E+00
  0.00000000E+00  0.00000000E+00  0.00000000E+00
