Graphene-Borophene Top with lattice para
   1.00000000000000     
     4.3058783076162293    2.4860000000000002    0.0000000000000000
    -4.3058783076162293    2.4860000000000002    0.0000000000000000
     0.0000000000000000    0.0000000000000000   15.0000000000000000
   B    C 
     8     8
Direct
  0.6685861117538131  0.0000326070494447  0.1673694839112276
  0.3314454952956339  0.0000326070494447  0.1673694839112276
 -0.0000326070494447  0.3314128882461893  0.1673694839112276
 -0.0000326070494447  0.6685535047043684  0.1673694839112276
  0.3314454952956339  0.3314128882461893  0.1673694839112276
  0.6685861117538131  0.6685535047043685  0.1673694839112276
  0.6666659999999993  0.3333330000000032  0.1540001889556048
  0.3333330000000032  0.6666659999999993  0.1805936701064045
  0.1666507142490493  0.3333024284981032  0.4004270870673972
  0.3333331877717906  0.1666660938858930  0.4003271932230747
  0.1666507142490493  0.8333482857509534  0.4004270870673972
  0.3333330000000032  0.6666659999999993  0.4004835735557903
  0.6666659999999993  0.3333330000000032  0.4003094897101103
  0.8333329061141093  0.1666660938858930  0.4003271932230747
  0.6666965715018999  0.8333482857509534  0.4004270870673972
  0.8333329061141093  0.6666658122282119  0.4003271932230747
 
  0.00000000E+00  0.00000000E+00  0.00000000E+00
  0.00000000E+00  0.00000000E+00  0.00000000E+00
  0.00000000E+00  0.00000000E+00  0.00000000E+00
  0.00000000E+00  0.00000000E+00  0.00000000E+00
  0.00000000E+00  0.00000000E+00  0.00000000E+00
  0.00000000E+00  0.00000000E+00  0.00000000E+00
  0.00000000E+00  0.00000000E+00  0.00000000E+00
  0.00000000E+00  0.00000000E+00  0.00000000E+00
  0.00000000E+00  0.00000000E+00  0.00000000E+00
  0.00000000E+00  0.00000000E+00  0.00000000E+00
  0.00000000E+00  0.00000000E+00  0.00000000E+00
  0.00000000E+00  0.00000000E+00  0.00000000E+00
  0.00000000E+00  0.00000000E+00  0.00000000E+00
  0.00000000E+00  0.00000000E+00  0.00000000E+00
  0.00000000E+00  0.00000000E+00  0.00000000E+00
  0.00000000E+00  0.00000000E+00  0.00000000E+00
