BC3 with lattice parameter 5.169        
   1.00000000000000     
     4.4764850000000003    2.5844999999999998    0.0000000000000000
    -4.4764850000000003    2.5844999999999998    0.0000000000000000
     0.0000000000000000    0.0000000000000000   15.0000000000000000
   B    C 
     2     6
Direct
  0.3383341270005673  0.6691650778946662  0.2500000000000000
  0.6716662742336268  0.3358319653696966  0.2500000000000000
  0.1637394263366593  0.3199863695545038  0.2500000000000000
  0.3224862301003206  0.1612436136509190  0.2500000000000000
  0.1637477572820904  0.8437557673071534  0.2500000000000000
  0.8462507750521728  0.1612439793900529  0.2500000000000000
  0.6875132237739864  0.8437567024661667  0.2500000000000000
  0.8462581862205787  0.6850125243668403  0.2500000000000000
 
  0.00000000E+00  0.00000000E+00  0.00000000E+00
  0.00000000E+00  0.00000000E+00  0.00000000E+00
  0.00000000E+00  0.00000000E+00  0.00000000E+00
  0.00000000E+00  0.00000000E+00  0.00000000E+00
  0.00000000E+00  0.00000000E+00  0.00000000E+00
  0.00000000E+00  0.00000000E+00  0.00000000E+00
  0.00000000E+00  0.00000000E+00  0.00000000E+00
  0.00000000E+00  0.00000000E+00  0.00000000E+00
