Graphene-B4C3 Hollow 1 with lattice para
   1.00000000000000     
     4.1924289797204670    2.4205000000000001    0.0000000000000000
    -4.1924289797204670    2.4205000000000001    0.0000000000000000
     0.0000000000000000    0.0000000000000000   15.0000000000000000
   B    C 
     4    11
Direct
  0.0117890076613440 -0.0041197144535921  0.1019825668058921
  0.3669645680639140 -0.0040711790423548  0.1012274819076803
  0.0118144718116240  0.3510221806738348  0.1013136019350493
  0.6567640714671251  0.6407424072637250  0.1012831201911201
  0.3355377665988092  0.3195842797885856  0.1012595875508762
  0.6882279231486039 -0.0040692239489410  0.1014310775027896
  0.0119383314201571  0.6722377941137420  0.1012816945949613
  0.1044074639691657  0.3948981270832673  0.3377392807243040
  0.2710482066557102  0.2282010147703742  0.3378006161941183
  0.1044185160828236  0.8949413152871021  0.3377764882807412
  0.2710865112709540  0.7282691792493400  0.3376872862331386
  0.6043808284311634  0.3949010707867404  0.3377237130749022
  0.7710531937528396  0.2282379323883938  0.3377167144305567
  0.6043747463400292  0.8948651245443869  0.3378427039679264
  0.7710439488812865  0.7282381359398638  0.3377133999392649
 
  0.00000000E+00  0.00000000E+00  0.00000000E+00
  0.00000000E+00  0.00000000E+00  0.00000000E+00
  0.00000000E+00  0.00000000E+00  0.00000000E+00
  0.00000000E+00  0.00000000E+00  0.00000000E+00
  0.00000000E+00  0.00000000E+00  0.00000000E+00
  0.00000000E+00  0.00000000E+00  0.00000000E+00
  0.00000000E+00  0.00000000E+00  0.00000000E+00
  0.00000000E+00  0.00000000E+00  0.00000000E+00
  0.00000000E+00  0.00000000E+00  0.00000000E+00
  0.00000000E+00  0.00000000E+00  0.00000000E+00
  0.00000000E+00  0.00000000E+00  0.00000000E+00
  0.00000000E+00  0.00000000E+00  0.00000000E+00
  0.00000000E+00  0.00000000E+00  0.00000000E+00
  0.00000000E+00  0.00000000E+00  0.00000000E+00
  0.00000000E+00  0.00000000E+00  0.00000000E+00
