k-points 34
0
Gamma
34    34    1
0    0    0