Graphene-Borophene Bridge with lattice p
   1.00000000000000     
     4.3136725362502881    2.4904999999999999    0.0000000000000000
    -4.3136725362502881    2.4904999999999999    0.0000000000000000
     0.0000000000000000    0.0000000000000000   15.0000000000000000
   B    C 
     8     8
Direct
  0.6713546569345913 -0.0027064386916537  0.1670917407674888
  0.3341530677099877 -0.0025856140054565  0.1673824213877293
  0.0027064386916537  0.3286443430654104  0.1670917407674888
  0.0025856140054565  0.6658459322900144  0.1673824213877293
  0.3339093658933434  0.3285961794558188  0.1662286045076652
  0.6714028205441841  0.6660896341066599  0.1662286045076652
  0.6689981512069942  0.3310008487930086  0.1546301101251795
  0.3356997962844061  0.6642992037155963  0.1789777944121752
  0.2473966323978946  0.2525820091433636  0.4021673445135743
  0.4140689783733267  0.0859591315456081  0.4022046373833715
  0.2473986774859837  0.7526003225140185  0.4022582984018487
  0.4140918626112946  0.5859071373887073  0.4022859429169380
  0.7473819574572244  0.2526170425427778  0.4021703786993170
  0.9140547877593276  0.0859442122406751  0.4020613116582553
  0.7474169908566390  0.7526023676021075  0.4021673445135743
  0.9140398684543947  0.5859300216266762  0.4022046373833715
 
  0.00000000E+00  0.00000000E+00  0.00000000E+00
  0.00000000E+00  0.00000000E+00  0.00000000E+00
  0.00000000E+00  0.00000000E+00  0.00000000E+00
  0.00000000E+00  0.00000000E+00  0.00000000E+00
  0.00000000E+00  0.00000000E+00  0.00000000E+00
  0.00000000E+00  0.00000000E+00  0.00000000E+00
  0.00000000E+00  0.00000000E+00  0.00000000E+00
  0.00000000E+00  0.00000000E+00  0.00000000E+00
  0.00000000E+00  0.00000000E+00  0.00000000E+00
  0.00000000E+00  0.00000000E+00  0.00000000E+00
  0.00000000E+00  0.00000000E+00  0.00000000E+00
  0.00000000E+00  0.00000000E+00  0.00000000E+00
  0.00000000E+00  0.00000000E+00  0.00000000E+00
  0.00000000E+00  0.00000000E+00  0.00000000E+00
  0.00000000E+00  0.00000000E+00  0.00000000E+00
  0.00000000E+00  0.00000000E+00  0.00000000E+00
