Graphene-Borophene Top with lattice para
   1.00000000000000     
     4.3431173999789596    2.5074999999999998    0.0000000000000000
    -4.3431173999789596    2.5074999999999998    0.0000000000000000
     0.0000000000000000    0.0000000000000000   15.0000000000000000
   B    C 
     8     8
Direct
  0.6681897738081872 -0.0000283404082597  0.1668910238043458
  0.3317808857835549 -0.0000283404082597  0.1668910238043458
  0.0000283404082597  0.3318092261918146  0.1668910238043458
  0.0000283404082597  0.6682181142164478  0.1668910238043458
  0.3317808857835549  0.3318092261918146  0.1668910238043458
  0.6681897738081872  0.6682181142164477  0.1668910238043458
  0.6666659999999993  0.3333330000000032  0.1782454748406336
  0.3333330000000032  0.6666659999999993  0.1553946579210940
  0.1666689741269222  0.3333389482538489  0.4008165153509334
  0.3333164910332219  0.1666577455166087  0.4008924897441304
  0.1666689741269222  0.8333300258730802  0.4008165153509334
  0.3333330000000032  0.6666659999999993  0.4008166895430923
  0.6666659999999993  0.3333330000000032  0.4009366862506053
  0.8333412544833941  0.1666577455166087  0.4008924897441304
  0.6666600517461536  0.8333300258730802  0.4008165153509334
  0.8333412544833941  0.6666825089667808  0.4008924897441304
 
  0.00000000E+00  0.00000000E+00  0.00000000E+00
  0.00000000E+00  0.00000000E+00  0.00000000E+00
  0.00000000E+00  0.00000000E+00  0.00000000E+00
  0.00000000E+00  0.00000000E+00  0.00000000E+00
  0.00000000E+00  0.00000000E+00  0.00000000E+00
  0.00000000E+00  0.00000000E+00  0.00000000E+00
  0.00000000E+00  0.00000000E+00  0.00000000E+00
  0.00000000E+00  0.00000000E+00  0.00000000E+00
  0.00000000E+00  0.00000000E+00  0.00000000E+00
  0.00000000E+00  0.00000000E+00  0.00000000E+00
  0.00000000E+00  0.00000000E+00  0.00000000E+00
  0.00000000E+00  0.00000000E+00  0.00000000E+00
  0.00000000E+00  0.00000000E+00  0.00000000E+00
  0.00000000E+00  0.00000000E+00  0.00000000E+00
  0.00000000E+00  0.00000000E+00  0.00000000E+00
  0.00000000E+00  0.00000000E+00  0.00000000E+00
