Graphene-B4C3 Top with lattice parameter
   1.00000000000000     
     4.1967591067393899    2.4230000000000000    0.0000000000000000
    -4.1967591067393899    2.4230000000000000    0.0000000000000000
     0.0000000000000000    0.0000000000000000   15.0000000000000000
    B   C
    4   3
Direct
  0.0040565264971550  0.0026973426677613  0.1015010599725337
  0.3592454943976371  0.0029787041833775  0.1007114085925378
  0.0037678318271037  0.3575995130750567  0.1007121690269986
  0.6491481768132735  0.6475062740020151  0.1007086017073830
  0.3277847569300641  0.3261441447265996  0.1007308620386451
  0.6806018782821388  0.0029748903958764  0.1007305422685538
  0.0037705582332333  0.6789592123307384  0.1007278578460998
