Graphene-Borophene Hollow 2 with lattice
   1.00000000000000     
     4.3041462568086590    2.4849999999999994    0.0000000000000000
    -4.3041462568086590    2.4849999999999994    0.0000000000000000
     0.0000000000000000    0.0000000000000000   15.0000000000000000
   B    C 
     8     8
Direct
  0.6692993346521174 -0.0000773420145510  0.1670154062644556
  0.3306223233333343 -0.0000773420145510  0.1670154062644556
  0.0000773420145510  0.3306996653478854  0.1670154062644556
  0.0000773420145510  0.6693766766666680  0.1670154062644556
  0.3306223233333343  0.3306996653478854  0.1670154062644556
  0.6692993346521174  0.6693766766666680  0.1670154062644556
  0.6666659999999993  0.3333330000000032  0.1580831131982167
  0.3333330000000032  0.6666659999999993  0.1768450285316090
  0.3333602887834362  0.1666801443917252  0.4034595854647706
  0.5000240142009298  0.0000480284018591  0.4035335539640170
  0.3333326666666636  0.6666663333333389  0.4034538915083568
  0.5000240142009298  0.4999749857990732  0.4035335539640170
  0.8333188556082776  0.1666801443917252  0.4034595854647706
  0.9999996666666675  0.9999993333333350  0.4033461108887139
  0.8333188556082776  0.6666387112165668  0.4034595854647706
 -0.0000490284018565  0.4999749857990732  0.4035335539640170
 
  0.00000000E+00  0.00000000E+00  0.00000000E+00
  0.00000000E+00  0.00000000E+00  0.00000000E+00
  0.00000000E+00  0.00000000E+00  0.00000000E+00
  0.00000000E+00  0.00000000E+00  0.00000000E+00
  0.00000000E+00  0.00000000E+00  0.00000000E+00
  0.00000000E+00  0.00000000E+00  0.00000000E+00
  0.00000000E+00  0.00000000E+00  0.00000000E+00
  0.00000000E+00  0.00000000E+00  0.00000000E+00
  0.00000000E+00  0.00000000E+00  0.00000000E+00
  0.00000000E+00  0.00000000E+00  0.00000000E+00
  0.00000000E+00  0.00000000E+00  0.00000000E+00
  0.00000000E+00  0.00000000E+00  0.00000000E+00
  0.00000000E+00  0.00000000E+00  0.00000000E+00
  0.00000000E+00  0.00000000E+00  0.00000000E+00
  0.00000000E+00  0.00000000E+00  0.00000000E+00
  0.00000000E+00  0.00000000E+00  0.00000000E+00
