Graphene-Borophene Top with lattice para
   1.00000000000000     
     4.3154045870578575    2.4914999999999998    0.0000000000000000
    -4.3154045870578575    2.4914999999999998    0.0000000000000000
     0.0000000000000000    0.0000000000000000   15.0000000000000000
   B    C 
     8     8
Direct
  0.6684882404947435  0.0000139010070188  0.1670931216155008
  0.3315246605122780  0.0000139010070188  0.1670931216155008
 -0.0000139010070188  0.3315107595052591  0.1670931216155008
 -0.0000139010070188  0.6684743394877241  0.1670931216155007
  0.3315246605122780  0.3315107595052591  0.1670931216155007
  0.6684882404947435  0.6684743394877241  0.1670931216155007
  0.6666659999999993  0.3333330000000032  0.1542368660942475
  0.3333330000000032  0.6666659999999993  0.1798118489746039
  0.1666501285742214  0.3333012571484473  0.4007043953357073
  0.3333300744907109  0.1666645372453532  0.4006051954541620
  0.1666501285742213  0.8333488714257818  0.4007043953357073
  0.3333330000000032  0.6666659999999993  0.4007552577840467
  0.6666659999999993  0.3333330000000032  0.4005751917511822
  0.8333344627546500  0.1666645372453532  0.4006051954541620
  0.6666977428515553  0.8333488714257818  0.4007043953357073
  0.8333344627546500  0.6666689255092918  0.4006051954541620
 
  0.00000000E+00  0.00000000E+00  0.00000000E+00
  0.00000000E+00  0.00000000E+00  0.00000000E+00
  0.00000000E+00  0.00000000E+00  0.00000000E+00
  0.00000000E+00  0.00000000E+00  0.00000000E+00
  0.00000000E+00  0.00000000E+00  0.00000000E+00
  0.00000000E+00  0.00000000E+00  0.00000000E+00
  0.00000000E+00  0.00000000E+00  0.00000000E+00
  0.00000000E+00  0.00000000E+00  0.00000000E+00
  0.00000000E+00  0.00000000E+00  0.00000000E+00
  0.00000000E+00  0.00000000E+00  0.00000000E+00
  0.00000000E+00  0.00000000E+00  0.00000000E+00
  0.00000000E+00  0.00000000E+00  0.00000000E+00
  0.00000000E+00  0.00000000E+00  0.00000000E+00
  0.00000000E+00  0.00000000E+00  0.00000000E+00
  0.00000000E+00  0.00000000E+00  0.00000000E+00
  0.00000000E+00  0.00000000E+00  0.00000000E+00
