Graphene-B4C3 Top with lattice parameter
   1.00000000000000     
     4.1855007764901915    2.4165000000000001    0.0000000000000000
    -4.1855007764901915    2.4165000000000001    0.0000000000000000
     0.0000000000000000    0.0000000000000000   15.0000000000000000
   B    C 
     4    11
Direct
  0.0040272599987118  0.0026800311570511  0.1021049099152191
  0.3592012829917145  0.0029414175586067  0.1003971795159707
  0.0037533213534029  0.3575840921382267  0.1003979003066235
  0.6491166960901178  0.6475016656063444  0.1003946199291725
  0.3278645956126359  0.3262469733010926  0.1005249955425549
  0.6804523741327592  0.0029441460787081  0.1005272683647838
  0.0037567100316275  0.6788353476436532  0.1005251551513242
  0.0001579249687689  0.5000802123701633  0.3348336080615683
  0.1668112149839941  0.3334698074044591  0.3348697840870357
  0.0001401017764965  0.0000866232894719  0.3347944762753369
  0.1668518898224693  0.8334172893107054  0.3348737401336110
  0.5001494420494531  0.5001148332285312  0.3348362502995827
  0.6668068035766012  0.3334215326666634  0.3347307619451597
  0.5001131115252359  0.0000688196156265  0.3348320702147173
  0.6667579377527039  0.8333745419640225  0.3348699469240222
 
  0.00000000E+00  0.00000000E+00  0.00000000E+00
  0.00000000E+00  0.00000000E+00  0.00000000E+00
  0.00000000E+00  0.00000000E+00  0.00000000E+00
  0.00000000E+00  0.00000000E+00  0.00000000E+00
  0.00000000E+00  0.00000000E+00  0.00000000E+00
  0.00000000E+00  0.00000000E+00  0.00000000E+00
  0.00000000E+00  0.00000000E+00  0.00000000E+00
  0.00000000E+00  0.00000000E+00  0.00000000E+00
  0.00000000E+00  0.00000000E+00  0.00000000E+00
  0.00000000E+00  0.00000000E+00  0.00000000E+00
  0.00000000E+00  0.00000000E+00  0.00000000E+00
  0.00000000E+00  0.00000000E+00  0.00000000E+00
  0.00000000E+00  0.00000000E+00  0.00000000E+00
  0.00000000E+00  0.00000000E+00  0.00000000E+00
  0.00000000E+00  0.00000000E+00  0.00000000E+00
