Graphene-Borophene Bridge with lattice p
   1.00000000000000     
     4.3188686886729952    2.4935000000000000    0.0000000000000000
    -4.3188686886729952    2.4935000000000000    0.0000000000000000
     0.0000000000000000    0.0000000000000000   15.0000000000000000
   B    C 
     8     8
Direct
  0.6737321602848596 -0.0051681375789857  0.1674432131862602
  0.3355398447092252 -0.0041626388541056  0.1675637809774943
  0.0051681375789857  0.3262668397151433  0.1674432131862602
  0.0041626388541056  0.6644591552907775  0.1675637809774943
  0.3357184740018515  0.3260383368374599  0.1673292549274242
  0.6739606631625427  0.6642805259981508  0.1673292549274242
  0.6711720425287908  0.3288269574712120  0.1582718405931580
  0.3374773581699530  0.6625216418300501  0.1759868520517740
  0.2454223583175021  0.2546744832468805  0.4017842648054272
  0.4121211275564243  0.0880058177734513  0.4017272651162520
  0.2453858424388513  0.7546131575611507  0.4015725470037068
  0.4120652393354649  0.5879337606645380  0.4016123447073996
  0.7453697136979105  0.2546292863020924  0.4016834857248373
  0.9120463670505635  0.0879526329494388  0.4017107052267800
  0.7453245167531223  0.7545766416824998  0.4017842648054272
  0.9119931822265515  0.5878778724435784  0.4017272651162520
 
  0.00000000E+00  0.00000000E+00  0.00000000E+00
  0.00000000E+00  0.00000000E+00  0.00000000E+00
  0.00000000E+00  0.00000000E+00  0.00000000E+00
  0.00000000E+00  0.00000000E+00  0.00000000E+00
  0.00000000E+00  0.00000000E+00  0.00000000E+00
  0.00000000E+00  0.00000000E+00  0.00000000E+00
  0.00000000E+00  0.00000000E+00  0.00000000E+00
  0.00000000E+00  0.00000000E+00  0.00000000E+00
  0.00000000E+00  0.00000000E+00  0.00000000E+00
  0.00000000E+00  0.00000000E+00  0.00000000E+00
  0.00000000E+00  0.00000000E+00  0.00000000E+00
  0.00000000E+00  0.00000000E+00  0.00000000E+00
  0.00000000E+00  0.00000000E+00  0.00000000E+00
  0.00000000E+00  0.00000000E+00  0.00000000E+00
  0.00000000E+00  0.00000000E+00  0.00000000E+00
  0.00000000E+00  0.00000000E+00  0.00000000E+00
