Graphene-Borophene Hollow 1 with lattice
   1.00000000000000     
     4.3171366378654268    2.4925000000000002    0.0000000000000000
    -4.3171366378654268    2.4925000000000002    0.0000000000000000
     0.0000000000000000    0.0000000000000000   15.0000000000000000
   B    C 
     8     8
Direct
  0.6718075963560569 -0.0024122580758089  0.1670049418163212
  0.3328906829390490 -0.0024250806726903  0.1668767167709229
  0.0024122580758089  0.3281914036439457  0.1670049418163211
  0.0024250806726903  0.6671083170609539  0.1668767167709229
  0.3326689242938907  0.3281187931539900  0.1669196357133379
  0.6718802068460127  0.6673300757061126  0.1669196357133379
  0.6687389201301045  0.3312600798698976  0.1612901049391823
  0.3355943894957380  0.6644046105042644  0.1724420867320319
  0.2754553750176378  0.2245189605030792  0.4026816038128065
  0.4421939367943294  0.0579371784898286  0.4026870642115830
  0.2754704673772308  0.7245285326227708  0.4026949390780053
  0.4421774694359488  0.5578215305640538  0.4027523108607293
  0.7754806906999205  0.2245183093000823  0.4026892350086476
  0.9421440297474154  0.0578549702525870  0.4025913987314703
  0.7754800394969235  0.7245436249823650  0.4026816038128065
  0.9420618215101741  0.5578050632056726  0.4026870642115830
 
  0.00000000E+00  0.00000000E+00  0.00000000E+00
  0.00000000E+00  0.00000000E+00  0.00000000E+00
  0.00000000E+00  0.00000000E+00  0.00000000E+00
  0.00000000E+00  0.00000000E+00  0.00000000E+00
  0.00000000E+00  0.00000000E+00  0.00000000E+00
  0.00000000E+00  0.00000000E+00  0.00000000E+00
  0.00000000E+00  0.00000000E+00  0.00000000E+00
  0.00000000E+00  0.00000000E+00  0.00000000E+00
  0.00000000E+00  0.00000000E+00  0.00000000E+00
  0.00000000E+00  0.00000000E+00  0.00000000E+00
  0.00000000E+00  0.00000000E+00  0.00000000E+00
  0.00000000E+00  0.00000000E+00  0.00000000E+00
  0.00000000E+00  0.00000000E+00  0.00000000E+00
  0.00000000E+00  0.00000000E+00  0.00000000E+00
  0.00000000E+00  0.00000000E+00  0.00000000E+00
  0.00000000E+00  0.00000000E+00  0.00000000E+00
