Graphene-B4C3 Hollow 2 with lattice para
   1.00000000000000     
     4.1976251321431741    2.4235000000000002    0.0000000000000000
    -4.1976251321431741    2.4235000000000002    0.0000000000000000
     0.0000000000000000    0.0000000000000000   15.0000000000000000
   B    C 
     4    11
Direct
  0.0043946746849628  0.0029230301215342  0.0996343871332755
  0.3595460582873266  0.0029258615416047  0.1010386399436730
  0.0044019366600731  0.3580700163380603  0.1010408276795178
  0.6492480203528879  0.6477719516029794  0.1010437350821160
  0.3280627241327519  0.3265854683648096  0.1008202981061663
  0.6807385520630176  0.0029285726684580  0.1008106790547882
  0.0044052736235384  0.6792625225485774  0.1008091056518050
  0.1664566987113428  0.3332030781791195  0.3382819317248759
  0.3331446467942720  0.1665161214721927  0.3382836167261749
  0.1664972531213859  0.8332236400491583  0.3382856843602354
  0.3331467574729510  0.6665391172380551  0.3381752339504395
  0.6664802263399427  0.3332041676194008  0.3381752370442740
  0.8331647519244342  0.1665555009083970  0.3382851362929949
  0.6664800124795218  0.8331859361023770  0.3382813440837433
  0.8331264133515993  0.6665390152452849  0.3382801431659476
 
  0.00000000E+00  0.00000000E+00  0.00000000E+00
  0.00000000E+00  0.00000000E+00  0.00000000E+00
  0.00000000E+00  0.00000000E+00  0.00000000E+00
  0.00000000E+00  0.00000000E+00  0.00000000E+00
  0.00000000E+00  0.00000000E+00  0.00000000E+00
  0.00000000E+00  0.00000000E+00  0.00000000E+00
  0.00000000E+00  0.00000000E+00  0.00000000E+00
  0.00000000E+00  0.00000000E+00  0.00000000E+00
  0.00000000E+00  0.00000000E+00  0.00000000E+00
  0.00000000E+00  0.00000000E+00  0.00000000E+00
  0.00000000E+00  0.00000000E+00  0.00000000E+00
  0.00000000E+00  0.00000000E+00  0.00000000E+00
  0.00000000E+00  0.00000000E+00  0.00000000E+00
  0.00000000E+00  0.00000000E+00  0.00000000E+00
  0.00000000E+00  0.00000000E+00  0.00000000E+00
