Graphene-BC3 Top with lattice parameter 
   1.00000000000000     
     4.3665000858811389    2.5209999999999995    0.0000000000000000
    -4.3665000858811389    2.5209999999999995    0.0000000000000000
     0.0000000000000000    0.0000000000000000   15.0000000000000000
   B    C 
     2    14
Direct
  0.3383347172569942  0.6691678225606839  0.1002362896953519
  0.6716674335431968  0.3358339207239517  0.1002362780535747
  0.1646377427261358  0.3217691015933978  0.0999107610854620
  0.3242721735096182  0.1621358334325563  0.0999098300518464
  0.1646389956770760  0.8428692707582827  0.0999107603767410
  0.8453717364155224  0.1621349761255068  0.0999121960275475
  0.6857383594828789  0.8428683228722398  0.0999127473063019
  0.8453734140821808  0.6832356824317186  0.0999121893624825
  0.1665654387486531  0.3331377286071517  0.3288826047310689
  0.3331352829458735  0.1665673850378994  0.3288837211293519
  0.1665654481253121  0.8334274047577769  0.3288826041027059
  0.3333268646656116  0.6666631814732629  0.3285853513436312
  0.6666601855838662  0.3333299428329802  0.3285853500192933
  0.8334250407591587  0.1665679529222547  0.3288802015510803
  0.6668541353525776  0.8334269182701908  0.3288789142365263
  0.8334250311253631  0.6668565556001546  0.3288802009270547
 
  0.00000000E+00  0.00000000E+00  0.00000000E+00
  0.00000000E+00  0.00000000E+00  0.00000000E+00
  0.00000000E+00  0.00000000E+00  0.00000000E+00
  0.00000000E+00  0.00000000E+00  0.00000000E+00
  0.00000000E+00  0.00000000E+00  0.00000000E+00
  0.00000000E+00  0.00000000E+00  0.00000000E+00
  0.00000000E+00  0.00000000E+00  0.00000000E+00
  0.00000000E+00  0.00000000E+00  0.00000000E+00
  0.00000000E+00  0.00000000E+00  0.00000000E+00
  0.00000000E+00  0.00000000E+00  0.00000000E+00
  0.00000000E+00  0.00000000E+00  0.00000000E+00
  0.00000000E+00  0.00000000E+00  0.00000000E+00
  0.00000000E+00  0.00000000E+00  0.00000000E+00
  0.00000000E+00  0.00000000E+00  0.00000000E+00
  0.00000000E+00  0.00000000E+00  0.00000000E+00
  0.00000000E+00  0.00000000E+00  0.00000000E+00
