Graphene-Borophene Top with lattice para
   1.00000000000000     
     4.3387872729600359    2.5049999999999990    0.0000000000000000
    -4.3387872729600359    2.5049999999999990    0.0000000000000000
     0.0000000000000000    0.0000000000000000   15.0000000000000000
   B    C 
     8     8
Direct
  0.6682360689378634 -0.0000365759741710  0.1670918134741230
  0.3317263550879685 -0.0000365759741710  0.1670918134741229
  0.0000365759741710  0.3317629310621394  0.1670918134741230
  0.0000365759741710  0.6682726449120343  0.1670918134741230
  0.3317263550879686  0.3317629310621394  0.1670918134741229
  0.6682360689378632  0.6682726449120343  0.1670918134741229
  0.6666659999999993  0.3333330000000032  0.1785961188691677
  0.3333330000000032  0.6666659999999993  0.1554167936952367
  0.1666655023539052  0.3333320047078149  0.4006143345793738
  0.3333102977754108  0.1666546488877031  0.4006972925871355
  0.1666655023539052  0.8333334976460977  0.4006143345793738
  0.3333330000000032  0.6666659999999993  0.4006090493956669
  0.6666659999999993  0.3333330000000032  0.4007589423623544
  0.8333443511122998  0.1666546488877031  0.4006972925871355
  0.6666669952921876  0.8333334976460977  0.4006143345793738
  0.8333443511122998  0.6666887022245915  0.4006972925871355
 
  0.00000000E+00  0.00000000E+00  0.00000000E+00
  0.00000000E+00  0.00000000E+00  0.00000000E+00
  0.00000000E+00  0.00000000E+00  0.00000000E+00
  0.00000000E+00  0.00000000E+00  0.00000000E+00
  0.00000000E+00  0.00000000E+00  0.00000000E+00
  0.00000000E+00  0.00000000E+00  0.00000000E+00
  0.00000000E+00  0.00000000E+00  0.00000000E+00
  0.00000000E+00  0.00000000E+00  0.00000000E+00
  0.00000000E+00  0.00000000E+00  0.00000000E+00
  0.00000000E+00  0.00000000E+00  0.00000000E+00
  0.00000000E+00  0.00000000E+00  0.00000000E+00
  0.00000000E+00  0.00000000E+00  0.00000000E+00
  0.00000000E+00  0.00000000E+00  0.00000000E+00
  0.00000000E+00  0.00000000E+00  0.00000000E+00
  0.00000000E+00  0.00000000E+00  0.00000000E+00
  0.00000000E+00  0.00000000E+00  0.00000000E+00
