Graphene-Borophene Hollow 2 with lattice
   1.00000000000000     
     4.2608449866194382    2.4600000000000000    0.0000000000000000
    -4.2608449866194382    2.4600000000000000    0.0000000000000000
     0.0000000000000000    0.0000000000000000   15.0000000000000000
   B    C 
     8     8
Direct
  0.6690671273665184 -0.0001254505353116  0.1667217714411778
  0.3308064220981726 -0.0001254505353116  0.1667217714411778
  0.0001254505353115  0.3309318726334844  0.1667217714411778
  0.0001254505353115  0.6691925779018297  0.1667217714411778
  0.3308064220981726  0.3309318726334844  0.1667217714411778
  0.6690671273665184  0.6691925779018297  0.1667217714411778
  0.6666659999999993  0.3333330000000032  0.1809247606252799
  0.3333330000000032  0.6666659999999993  0.1516705506863027
  0.3333176300732448  0.1666588150366295  0.4040282521445857
  0.5000153036680951  0.0000306073361898  0.4040297430464615
  0.3333326666666636  0.6666663333333389  0.4038476881556272
  0.5000153036680951  0.4999836963319075  0.4040297430464615
  0.8333401849633727  0.1666588150366295  0.4040282521445857
  0.9999996666666675  0.9999993333333350  0.4038523863125749
  0.8333401849633727  0.6666813699267573  0.4040282521445857
 -0.0000316073361872  0.4999836963319075  0.4040297430464615
 
  0.00000000E+00  0.00000000E+00  0.00000000E+00
  0.00000000E+00  0.00000000E+00  0.00000000E+00
  0.00000000E+00  0.00000000E+00  0.00000000E+00
  0.00000000E+00  0.00000000E+00  0.00000000E+00
  0.00000000E+00  0.00000000E+00  0.00000000E+00
  0.00000000E+00  0.00000000E+00  0.00000000E+00
  0.00000000E+00  0.00000000E+00  0.00000000E+00
  0.00000000E+00  0.00000000E+00  0.00000000E+00
  0.00000000E+00  0.00000000E+00  0.00000000E+00
  0.00000000E+00  0.00000000E+00  0.00000000E+00
  0.00000000E+00  0.00000000E+00  0.00000000E+00
  0.00000000E+00  0.00000000E+00  0.00000000E+00
  0.00000000E+00  0.00000000E+00  0.00000000E+00
  0.00000000E+00  0.00000000E+00  0.00000000E+00
  0.00000000E+00  0.00000000E+00  0.00000000E+00
  0.00000000E+00  0.00000000E+00  0.00000000E+00
