Graphene-B4C3 Hollow 2 with lattice para
   1.00000000000000     
     4.1924289797204670    2.4205000000000001    0.0000000000000000
    -4.1924289797204670    2.4205000000000001    0.0000000000000000
     0.0000000000000000    0.0000000000000000   15.0000000000000000
   B    C 
     4    11
Direct
  0.0043784928109979  0.0029059057458053  0.0995467409102272
  0.3595346554340672  0.0029169486203367  0.1011632266876612
  0.0043918441623710  0.3580654962408534  0.1011652862709410
  0.6492348212403524  0.6477595509845772  0.1011692824045423
  0.3281022430812345  0.3266300888631051  0.1009051705690106
  0.6806732143352872  0.0029108839986444  0.1009097311647068
  0.0043824954254396  0.6791997731376818  0.1009110800919252
  0.1664712841885527  0.3332134824871752  0.3382103501896959
  0.3331573435745418  0.1665262657615678  0.3382121426173109
  0.1665115627707605  0.8332357058477851  0.3382146621517202
  0.3331567301668622  0.6665468597694144  0.3381022095891923
  0.6664892511404976  0.3332126481217920  0.3381022105232807
  0.8331791561465507  0.1665679218181772  0.3382139768385825
  0.6664897667635626  0.8331957618495295  0.3382105327856174
  0.8331411387589304  0.6665467067535660  0.3382093972056119
 
  0.00000000E+00  0.00000000E+00  0.00000000E+00
  0.00000000E+00  0.00000000E+00  0.00000000E+00
  0.00000000E+00  0.00000000E+00  0.00000000E+00
  0.00000000E+00  0.00000000E+00  0.00000000E+00
  0.00000000E+00  0.00000000E+00  0.00000000E+00
  0.00000000E+00  0.00000000E+00  0.00000000E+00
  0.00000000E+00  0.00000000E+00  0.00000000E+00
  0.00000000E+00  0.00000000E+00  0.00000000E+00
  0.00000000E+00  0.00000000E+00  0.00000000E+00
  0.00000000E+00  0.00000000E+00  0.00000000E+00
  0.00000000E+00  0.00000000E+00  0.00000000E+00
  0.00000000E+00  0.00000000E+00  0.00000000E+00
  0.00000000E+00  0.00000000E+00  0.00000000E+00
  0.00000000E+00  0.00000000E+00  0.00000000E+00
  0.00000000E+00  0.00000000E+00  0.00000000E+00
