Graphene-B4C3 Top with lattice parameter
   1.00000000000000     
     4.1906969289128986    2.4195000000000002    0.0000000000000000
    -4.1906969289128986    2.4195000000000002    0.0000000000000000
     0.0000000000000000    0.0000000000000000   15.0000000000000000
   B    C 
     4    11
Direct
  0.0041513155411437  0.0027360575023323  0.1058707801060594
  0.3591849062864393  0.0031064466697241  0.1006982788157720
  0.0038478710513194  0.3574360742603340  0.1007007815879751
  0.6494407030347550  0.6477531817343533  0.1006916250199588
  0.3278852324440891  0.3261532829917781  0.1011760964551256
  0.6807562267113897  0.0031242009828975  0.1011703213971432
  0.0038138036931211  0.6789924483961977  0.1011655341036987
  0.0000179013216040  0.4999963376103959  0.3340171250704426
  0.1667026789469921  0.3334149466894585  0.3340354360367475
  0.0000294492793991  0.0000166450415536  0.3339840953071197
  0.1667439283843850  0.8333373737358372  0.3340400370152639
  0.5000516832257046  0.5000277582380493  0.3340200929629768
  0.6666906989060046  0.3333504476176906  0.3338902516460807
  0.5000194285885108  0.0000276316193210  0.3340162367047738
  0.6666248392518360  0.8332945002434027  0.3340359744375443
 
  0.00000000E+00  0.00000000E+00  0.00000000E+00
  0.00000000E+00  0.00000000E+00  0.00000000E+00
  0.00000000E+00  0.00000000E+00  0.00000000E+00
  0.00000000E+00  0.00000000E+00  0.00000000E+00
  0.00000000E+00  0.00000000E+00  0.00000000E+00
  0.00000000E+00  0.00000000E+00  0.00000000E+00
  0.00000000E+00  0.00000000E+00  0.00000000E+00
  0.00000000E+00  0.00000000E+00  0.00000000E+00
  0.00000000E+00  0.00000000E+00  0.00000000E+00
  0.00000000E+00  0.00000000E+00  0.00000000E+00
  0.00000000E+00  0.00000000E+00  0.00000000E+00
  0.00000000E+00  0.00000000E+00  0.00000000E+00
  0.00000000E+00  0.00000000E+00  0.00000000E+00
  0.00000000E+00  0.00000000E+00  0.00000000E+00
  0.00000000E+00  0.00000000E+00  0.00000000E+00
