Graphene-B4C3 Bridge with lattice parame
   1.00000000000000     
     4.2045533353734497    2.4275000000000002    0.0000000000000000
    -4.2045533353734497    2.4275000000000002    0.0000000000000000
     0.0000000000000000    0.0000000000000000   15.0000000000000000
   B    C 
     4    11
Direct
  0.0061023175281674  0.0010349407111298  0.1006047502760388
  0.3611854067533802  0.0008956596872089  0.1012865667035521
  0.0062442729730169  0.3561063899086571  0.1014340958893710
  0.6513139812513643  0.6456430111998401  0.1013907165914086
  0.3298102302507294  0.3243510461659173  0.1012356136471640
  0.6827087161383304  0.0007897453571138  0.1012100368381352
  0.0061538798247366  0.6773146724053247  0.1012648377696185
  0.0815499831400350  0.4183282566438213  0.3370871500986073
  0.2482232079510361  0.2516492870286376  0.3372007543109305
  0.0815792205492163  0.9183717258460689  0.3371545279325955
  0.2482777209951911  0.7516788043502661  0.3370777729554662
  0.5815487997677713  0.4183255283160081  0.3371071422344544
  0.7482183933474946  0.2516484149002641  0.3370452489827689
  0.5815239810869550  0.9183222632948408  0.3371818350690624
  0.7481872217758964  0.7516409208515983  0.3370982840341626
 
  0.00000000E+00  0.00000000E+00  0.00000000E+00
  0.00000000E+00  0.00000000E+00  0.00000000E+00
  0.00000000E+00  0.00000000E+00  0.00000000E+00
  0.00000000E+00  0.00000000E+00  0.00000000E+00
  0.00000000E+00  0.00000000E+00  0.00000000E+00
  0.00000000E+00  0.00000000E+00  0.00000000E+00
  0.00000000E+00  0.00000000E+00  0.00000000E+00
  0.00000000E+00  0.00000000E+00  0.00000000E+00
  0.00000000E+00  0.00000000E+00  0.00000000E+00
  0.00000000E+00  0.00000000E+00  0.00000000E+00
  0.00000000E+00  0.00000000E+00  0.00000000E+00
  0.00000000E+00  0.00000000E+00  0.00000000E+00
  0.00000000E+00  0.00000000E+00  0.00000000E+00
  0.00000000E+00  0.00000000E+00  0.00000000E+00
  0.00000000E+00  0.00000000E+00  0.00000000E+00
