Graphene-B4C3 Top with lattice parameter
   1.00000000000000     
     4.1915629543166810    2.4199999999999990    0.0000000000000000
    -4.1915629543166810    2.4199999999999990    0.0000000000000000
     0.0000000000000000    0.0000000000000000   15.0000000000000000
   B    C 
     4    11
Direct
  0.0040484112565358  0.0026940798735027  0.1015799669248295
  0.3592255108116283  0.0029603607136080  0.1005117551798231
  0.0037744996739748  0.3575993195741598  0.1005125918739661
  0.6491302942353399  0.6475080549933857  0.1005094302002590
  0.3278205140418723  0.3261982792583254  0.1005509403192449
  0.6805346034309699  0.0029572677276151  0.1005587708518321
  0.0037747479759408  0.6789090848450633  0.1005578570998671
  0.0001402266252767  0.5000686197515267  0.3348445408758637
  0.1667919952601462  0.3334552969228618  0.3348793787472813
  0.0001266111318796  0.0000767954650677  0.3348086608043683
  0.1668282851180893  0.8334038453756897  0.3348837384063863
  0.5001349641376199  0.5000993135404738  0.3348469797090155
  0.6667885855592655  0.3334107736391395  0.3347451036686370
  0.5001019123327530  0.0000609679761000  0.3348431680295124
  0.6667395050754005  0.8333652736768047  0.3348797839757960
 
  0.00000000E+00  0.00000000E+00  0.00000000E+00
  0.00000000E+00  0.00000000E+00  0.00000000E+00
  0.00000000E+00  0.00000000E+00  0.00000000E+00
  0.00000000E+00  0.00000000E+00  0.00000000E+00
  0.00000000E+00  0.00000000E+00  0.00000000E+00
  0.00000000E+00  0.00000000E+00  0.00000000E+00
  0.00000000E+00  0.00000000E+00  0.00000000E+00
  0.00000000E+00  0.00000000E+00  0.00000000E+00
  0.00000000E+00  0.00000000E+00  0.00000000E+00
  0.00000000E+00  0.00000000E+00  0.00000000E+00
  0.00000000E+00  0.00000000E+00  0.00000000E+00
  0.00000000E+00  0.00000000E+00  0.00000000E+00
  0.00000000E+00  0.00000000E+00  0.00000000E+00
  0.00000000E+00  0.00000000E+00  0.00000000E+00
  0.00000000E+00  0.00000000E+00  0.00000000E+00
