Graphene-Borophene Top with lattice para
   1.00000000000000     
     4.3214667648843470    2.4949999999999992    0.0000000000000000
    -4.3214667648843470    2.4949999999999992    0.0000000000000000
     0.0000000000000000    0.0000000000000000   15.0000000000000000
   B    C 
     8     8
Direct
  0.6682894093431797 -0.0000037620291741  0.1677650343729276
  0.3317058286276486 -0.0000037620291741  0.1677650343729276
  0.0000037620291741  0.3317095906568227  0.1677650343729276
  0.0000037620291741  0.6682931713723540  0.1677650343729276
  0.3317058286276486  0.3317095906568226  0.1677650343729276
  0.6682894093431797  0.6682931713723540  0.1677650343729276
  0.6666659999999993  0.3333330000000032  0.1552731451786083
  0.3333330000000032  0.6666659999999993  0.1809754864257204
  0.1666579184441790  0.3333168368883626  0.3999437575918183
  0.3333319520366162  0.1666654760183058  0.3998001652772097
  0.1666579184441790  0.8333410815558245  0.3999437575918183
  0.3333330000000032  0.6666659999999993  0.4000316717508965
  0.6666659999999993  0.3333330000000032  0.3997643884668172
  0.8333335239816969  0.1666654760183058  0.3998001652772096
  0.6666821631116403  0.8333410815558245  0.3999437575918183
  0.8333335239816969  0.6666670479633857  0.3998001652772096
 
  0.00000000E+00  0.00000000E+00  0.00000000E+00
  0.00000000E+00  0.00000000E+00  0.00000000E+00
  0.00000000E+00  0.00000000E+00  0.00000000E+00
  0.00000000E+00  0.00000000E+00  0.00000000E+00
  0.00000000E+00  0.00000000E+00  0.00000000E+00
  0.00000000E+00  0.00000000E+00  0.00000000E+00
  0.00000000E+00  0.00000000E+00  0.00000000E+00
  0.00000000E+00  0.00000000E+00  0.00000000E+00
  0.00000000E+00  0.00000000E+00  0.00000000E+00
  0.00000000E+00  0.00000000E+00  0.00000000E+00
  0.00000000E+00  0.00000000E+00  0.00000000E+00
  0.00000000E+00  0.00000000E+00  0.00000000E+00
  0.00000000E+00  0.00000000E+00  0.00000000E+00
  0.00000000E+00  0.00000000E+00  0.00000000E+00
  0.00000000E+00  0.00000000E+00  0.00000000E+00
  0.00000000E+00  0.00000000E+00  0.00000000E+00
