Graphene-Borophene Hollow_1 with lattice
   1.00000000000000     
     4.3119404854427197    2.4895000000000000    0.0000000000000000
    -4.3119404854427197    2.4895000000000000    0.0000000000000000
     0.0000000000000000    0.0000000000000000   15.0000000000000000
   B    C 
     8     8
Direct
  0.7111579368135086 -0.0422056114675581  0.1015340130263351
  0.3737592304389441 -0.0423396117391022  0.1016860114626125
  0.0422056114675581  0.2888410631864932  0.1015340130263351
  0.0423396117391022  0.6262397695610591  0.1016860114626125
  0.3737055557810859  0.2888874447802269  0.1010896457876924
  0.7111115552197753  0.6262934442189163  0.1010896457876924
  0.7088357331768684  0.2911632668231348  0.0888240776739904
  0.3755567709313809  0.6244422290686213  0.1134950714304451
  0.2354838116509222  0.2645435290196502  0.3342941594707446
  0.4020983222727425  0.0978823284809717  0.3341752301297813
  0.2354434106859525  0.7645555893140495  0.3341538140971370
  0.4020769857811889  0.5979220142188144  0.3343132138630735
  0.7354098176354836  0.2645891823645190  0.3342174274718498
  0.9021253927950356  0.0978736072049671  0.3342382757091796
  0.7354554709803528  0.7645151883490802  0.3342941594707446
  0.9021166715190306  0.5979006777272600  0.3341752301297813
 
  0.00000000E+00  0.00000000E+00  0.00000000E+00
  0.00000000E+00  0.00000000E+00  0.00000000E+00
  0.00000000E+00  0.00000000E+00  0.00000000E+00
  0.00000000E+00  0.00000000E+00  0.00000000E+00
  0.00000000E+00  0.00000000E+00  0.00000000E+00
  0.00000000E+00  0.00000000E+00  0.00000000E+00
  0.00000000E+00  0.00000000E+00  0.00000000E+00
  0.00000000E+00  0.00000000E+00  0.00000000E+00
  0.00000000E+00  0.00000000E+00  0.00000000E+00
  0.00000000E+00  0.00000000E+00  0.00000000E+00
  0.00000000E+00  0.00000000E+00  0.00000000E+00
  0.00000000E+00  0.00000000E+00  0.00000000E+00
  0.00000000E+00  0.00000000E+00  0.00000000E+00
  0.00000000E+00  0.00000000E+00  0.00000000E+00
  0.00000000E+00  0.00000000E+00  0.00000000E+00
  0.00000000E+00  0.00000000E+00  0.00000000E+00
