B4C3 POSCAR test Reference lattice constant 4.69
        1.0
        4.174242    2.410000    0.000000
       -4.174242    2.410000    0.000000
        0.000000    0.000000    15.00000
        B   C
        4   3
        Direct
        0.000000    0.000000    0.100000
        0.333333    0.000000    0.100000
        0.000000    0.333333    0.100000
        0.666666    0.666666    0.100000
        0.333333    0.333333    0.100000
        0.666666    0.000000    0.100000
        0.000000    0.666666    0.100000
