Graphene-BC3 Hollow with lattice paramet
   1.00000000000000     
     4.3716962383038442    2.5239999999999991    0.0000000000000000
    -4.3716962383038442    2.5239999999999991    0.0000000000000000
     0.0000000000000000    0.0000000000000000   15.0000000000000000
   B    C 
     2    14
Direct
  0.3383148652443924  0.6691538548464945  0.1003268578214031
  0.6716525108090188  0.3358243088065546  0.0999954902440297
  0.1645707466539612  0.3216795025791891  0.1000318517236011
  0.3241031379398674  0.1620515655586238  0.1000356077735524
  0.1645714714500165  0.8428925618141084  0.1000318767415681
  0.8454173561401390  0.1620509651517890  0.1000289865688611
  0.6857836794068219  0.8428928054742326  0.1000253913392604
  0.8454164796793388  0.6833647872491304  0.1000288882373891
  0.3333723047448300  0.1666860855027440  0.3255194558765001
  0.5000568448043721  0.0000896542102824  0.3254991752343649
  0.3333526129031185  0.6666761731252612  0.3252203183727518
  0.5000568430901757  0.4999677717632520  0.3254991779232382
  0.8333474588236253  0.1666874639757025  0.3255147414842330
  0.0000208749570746  0.0000107512436489  0.3254941252575694
  0.8333474033633955  0.6666597544948751  0.3255147609482480
  0.9999407433231858  0.4999706608708067  0.3254999611201016
 
  0.00000000E+00  0.00000000E+00  0.00000000E+00
  0.00000000E+00  0.00000000E+00  0.00000000E+00
  0.00000000E+00  0.00000000E+00  0.00000000E+00
  0.00000000E+00  0.00000000E+00  0.00000000E+00
  0.00000000E+00  0.00000000E+00  0.00000000E+00
  0.00000000E+00  0.00000000E+00  0.00000000E+00
  0.00000000E+00  0.00000000E+00  0.00000000E+00
  0.00000000E+00  0.00000000E+00  0.00000000E+00
  0.00000000E+00  0.00000000E+00  0.00000000E+00
  0.00000000E+00  0.00000000E+00  0.00000000E+00
  0.00000000E+00  0.00000000E+00  0.00000000E+00
  0.00000000E+00  0.00000000E+00  0.00000000E+00
  0.00000000E+00  0.00000000E+00  0.00000000E+00
  0.00000000E+00  0.00000000E+00  0.00000000E+00
  0.00000000E+00  0.00000000E+00  0.00000000E+00
  0.00000000E+00  0.00000000E+00  0.00000000E+00
