Graphene-BC3 Hollow with lattice paramet
   1.00000000000000     
     4.3716962383038442    2.5239999999999991    0.0000000000000000
    -4.3716962383038442    2.5239999999999991    0.0000000000000000
     0.0000000000000000    0.0000000000000000   15.0000000000000000
   B    C 
     2    14
Direct
  0.3382940294963907  0.6691463883638975  0.1003742142545790
  0.6716266412987277  0.3358110605256097  0.1000934581650444
  0.1645503657396876  0.3216701186453315  0.1000752551537799
  0.3240790507563120  0.1620413888488437  0.1000910289074980
  0.1645507903818143  0.8428759904254737  0.1000753543103810
  0.8454020380591728  0.1620402785316800  0.1000824745618106
  0.6857514118727034  0.8428725720425047  0.1000671222895831
  0.8454036176635046  0.6833657884159219  0.1000827565324275
  0.3333960405481083  0.1666974315465429  0.3254686998184450
  0.5000786477708514  0.0001058350511000  0.3254430621041755
  0.3333765239591228  0.6666877897220278  0.3251531789318325
  0.5000785269378358  0.4999746746055698  0.3254430272486723
  0.8333719038837790  0.1666988308802776  0.3254636471704266
  0.0000403005717262  0.0000209948928357  0.3254458666507041
  0.8333718995223592  0.6666718607951089  0.3254636319275516
  0.9999535448712372  0.4999776633739696  0.3254438886397606
 
  0.00000000E+00  0.00000000E+00  0.00000000E+00
  0.00000000E+00  0.00000000E+00  0.00000000E+00
  0.00000000E+00  0.00000000E+00  0.00000000E+00
  0.00000000E+00  0.00000000E+00  0.00000000E+00
  0.00000000E+00  0.00000000E+00  0.00000000E+00
  0.00000000E+00  0.00000000E+00  0.00000000E+00
  0.00000000E+00  0.00000000E+00  0.00000000E+00
  0.00000000E+00  0.00000000E+00  0.00000000E+00
  0.00000000E+00  0.00000000E+00  0.00000000E+00
  0.00000000E+00  0.00000000E+00  0.00000000E+00
  0.00000000E+00  0.00000000E+00  0.00000000E+00
  0.00000000E+00  0.00000000E+00  0.00000000E+00
  0.00000000E+00  0.00000000E+00  0.00000000E+00
  0.00000000E+00  0.00000000E+00  0.00000000E+00
  0.00000000E+00  0.00000000E+00  0.00000000E+00
  0.00000000E+00  0.00000000E+00  0.00000000E+00
