Graphene-BC3 Bridge with lattice paramet
   1.00000000000000     
     4.3725622637076311    2.5245000000000002    0.0000000000000000
    -4.3725622637076311    2.5245000000000002    0.0000000000000000
     0.0000000000000000    0.0000000000000000   15.0000000000000000
   B    C 
     2    14
Direct
  0.3273494745277699  0.6809251224974789  0.1009893301660725
  0.6605131834796221  0.3476820967723431  0.1005891165028745
  0.1536342246257624  0.3334883077896225  0.1004431239110295
  0.3130577017140504  0.1738858158170984  0.1005711536990010
  0.1535606977930513  0.8547284484050455  0.1005604323143141
  0.8343665420953292  0.1738289972016996  0.1004330358379549
  0.6748090931980490  0.8546480350874122  0.1004393651149789
  0.8343510513204729  0.6952498520353833  0.1005633896885349
  0.2610386103281017  0.2380870843294677  0.3257865030349451
  0.4276101615346176  0.0715769239985848  0.3257083651844545
  0.2610159952576455  0.7382320251318014  0.3257647203148098
  0.4277395110064064  0.5714921046851986  0.3257577601864783
  0.7610738945948171  0.2381652787651028  0.3258386717922530
  0.9277257172836055  0.0715056972411796  0.3257271176889605
  0.7611576959908282  0.7382068865347595  0.3257855646480962
  0.9276551119165737  0.5716226570411457  0.3257090165818992
 
  0.00000000E+00  0.00000000E+00  0.00000000E+00
  0.00000000E+00  0.00000000E+00  0.00000000E+00
  0.00000000E+00  0.00000000E+00  0.00000000E+00
  0.00000000E+00  0.00000000E+00  0.00000000E+00
  0.00000000E+00  0.00000000E+00  0.00000000E+00
  0.00000000E+00  0.00000000E+00  0.00000000E+00
  0.00000000E+00  0.00000000E+00  0.00000000E+00
  0.00000000E+00  0.00000000E+00  0.00000000E+00
  0.00000000E+00  0.00000000E+00  0.00000000E+00
  0.00000000E+00  0.00000000E+00  0.00000000E+00
  0.00000000E+00  0.00000000E+00  0.00000000E+00
  0.00000000E+00  0.00000000E+00  0.00000000E+00
  0.00000000E+00  0.00000000E+00  0.00000000E+00
  0.00000000E+00  0.00000000E+00  0.00000000E+00
  0.00000000E+00  0.00000000E+00  0.00000000E+00
  0.00000000E+00  0.00000000E+00  0.00000000E+00
