Graphene-BC3 Bridge with lattice paramet
   1.00000000000000     
     4.3725622637076311    2.5245000000000002    0.0000000000000000
    -4.3725622637076311    2.5245000000000002    0.0000000000000000
     0.0000000000000000    0.0000000000000000   15.0000000000000000
   B    C 
     2    14
Direct
  0.3269046696921148  0.6813990806848409  0.1010130707217674
  0.6601459572728218  0.3481315369161971  0.1006388914508704
  0.1530983526642076  0.3339724649300528  0.1005815847981385
  0.3125637660425333  0.1743653328908611  0.1005626802400044
  0.1530941523760488  0.8552164427013453  0.1004989470582918
  0.8338752583118091  0.1743891678082033  0.1006196010661147
  0.6743358180514663  0.8552078002167456  0.1005693977017035
  0.8339170993168792  0.6957297369824369  0.1005468383266004
  0.2614867804225653  0.2376264431762609  0.3257205922470742
  0.4281114373548413  0.0710592559704411  0.3256648761659843
  0.2614640199339644  0.7377436052571363  0.3256907350693416
  0.4282200370980270  0.5709840659018909  0.3257156015636973
  0.7615070674008804  0.2376941164371047  0.3257741296987773
  0.9282100470768843  0.0709937962863178  0.3256848908263484
  0.7615787681714076  0.7377193393888860  0.3257195045062878
  0.9281454354802521  0.5710931477846026  0.3256653252256552
 
  0.00000000E+00  0.00000000E+00  0.00000000E+00
  0.00000000E+00  0.00000000E+00  0.00000000E+00
  0.00000000E+00  0.00000000E+00  0.00000000E+00
  0.00000000E+00  0.00000000E+00  0.00000000E+00
  0.00000000E+00  0.00000000E+00  0.00000000E+00
  0.00000000E+00  0.00000000E+00  0.00000000E+00
  0.00000000E+00  0.00000000E+00  0.00000000E+00
  0.00000000E+00  0.00000000E+00  0.00000000E+00
  0.00000000E+00  0.00000000E+00  0.00000000E+00
  0.00000000E+00  0.00000000E+00  0.00000000E+00
  0.00000000E+00  0.00000000E+00  0.00000000E+00
  0.00000000E+00  0.00000000E+00  0.00000000E+00
  0.00000000E+00  0.00000000E+00  0.00000000E+00
  0.00000000E+00  0.00000000E+00  0.00000000E+00
  0.00000000E+00  0.00000000E+00  0.00000000E+00
  0.00000000E+00  0.00000000E+00  0.00000000E+00
