Graphene-BC3 Hollow with lattice paramet
   1.00000000000000     
     4.3682321366887082    2.5219999999999998    0.0000000000000000
    -4.3682321366887082    2.5219999999999998    0.0000000000000000
     0.0000000000000000    0.0000000000000000   15.0000000000000000
   B    C 
     2    14
Direct
  0.3382272400371804  0.6691094601595188  0.1135201247020399
  0.6715634589326506  0.3357761366128163  0.1131917445529441
  0.1645071665198949  0.3216666043833730  0.1131711982879634
  0.3240419139939735  0.1620165781043956  0.1131819449266250
  0.1645063568583696  0.8428283726272470  0.1131732367407596
  0.8453184449274015  0.1620155782188111  0.1131738137035719
  0.6856636003386818  0.8428255461315244  0.1131659502169092
  0.8453180375791124  0.6832947361609576  0.1131759055788944
  0.3334570923345546  0.1667330868526648  0.3380360725383757
  0.5001481776175004  0.0001461352671460  0.3380083277110639
  0.3334364140803929  0.6667227421597799  0.3377086518244937
  0.5001481593533625  0.5000110178634074  0.3380083353061279
  0.8334308406090823  0.1667343561657697  0.3380311246869804
  0.0001081172698782  0.0000585012567531  0.3380135035426896
  0.8334308723670395  0.6667056170594853  0.3380311674593465
  0.0000194405142588  0.5000141976430451  0.3380088982212153
 
  0.00000000E+00  0.00000000E+00  0.00000000E+00
  0.00000000E+00  0.00000000E+00  0.00000000E+00
  0.00000000E+00  0.00000000E+00  0.00000000E+00
  0.00000000E+00  0.00000000E+00  0.00000000E+00
  0.00000000E+00  0.00000000E+00  0.00000000E+00
  0.00000000E+00  0.00000000E+00  0.00000000E+00
  0.00000000E+00  0.00000000E+00  0.00000000E+00
  0.00000000E+00  0.00000000E+00  0.00000000E+00
  0.00000000E+00  0.00000000E+00  0.00000000E+00
  0.00000000E+00  0.00000000E+00  0.00000000E+00
  0.00000000E+00  0.00000000E+00  0.00000000E+00
  0.00000000E+00  0.00000000E+00  0.00000000E+00
  0.00000000E+00  0.00000000E+00  0.00000000E+00
  0.00000000E+00  0.00000000E+00  0.00000000E+00
  0.00000000E+00  0.00000000E+00  0.00000000E+00
  0.00000000E+00  0.00000000E+00  0.00000000E+00
