k-points 47
0
Gamma
47    47    1
0    0    0