k-points 25
0
Gamma
25    25    1
0    0    0