Graphene-B4C3 Top with lattice parameter
   1.00000000000000     
     4.1889648781053292    2.4184999999999999    0.0000000000000000
    -4.1889648781053292    2.4184999999999999    0.0000000000000000
     0.0000000000000000    0.0000000000000000   15.0000000000000000
   B    C 
     4    11
Direct
  0.0040400128707162  0.0026875551412903  0.1018923334065593
  0.3592246740910942  0.0029602957673693  0.1004660759352969
  0.0037626888015664  0.3575969698223398  0.1004668154636340
  0.6491332339468500  0.6475070602449124  0.1004632789839561
  0.3278468361672792  0.3262220122923964  0.1005619116362901
  0.6804982410945760  0.0029556739025084  0.1005614124520433
  0.0037624071010057  0.6788754172664159  0.1005587802521780
  0.0001472956567721  0.5000719999193004  0.3348214763814840
  0.1667988923709967  0.3334590245408161  0.3348574284204863
  0.0001273776133488  0.0000777348382347  0.3347821870925746
  0.1668394854827936  0.8334092978574241  0.3348612822571224
  0.5001356179238214  0.5001070306900706  0.3348242519329129
  0.6667960551738563  0.3334129509106712  0.3347180227712357
  0.5000990518632008  0.0000575656156606  0.3348198808140594
  0.6667487965088160  0.8333667445239148  0.3348575288668486
 
  0.00000000E+00  0.00000000E+00  0.00000000E+00
  0.00000000E+00  0.00000000E+00  0.00000000E+00
  0.00000000E+00  0.00000000E+00  0.00000000E+00
  0.00000000E+00  0.00000000E+00  0.00000000E+00
  0.00000000E+00  0.00000000E+00  0.00000000E+00
  0.00000000E+00  0.00000000E+00  0.00000000E+00
  0.00000000E+00  0.00000000E+00  0.00000000E+00
  0.00000000E+00  0.00000000E+00  0.00000000E+00
  0.00000000E+00  0.00000000E+00  0.00000000E+00
  0.00000000E+00  0.00000000E+00  0.00000000E+00
  0.00000000E+00  0.00000000E+00  0.00000000E+00
  0.00000000E+00  0.00000000E+00  0.00000000E+00
  0.00000000E+00  0.00000000E+00  0.00000000E+00
  0.00000000E+00  0.00000000E+00  0.00000000E+00
  0.00000000E+00  0.00000000E+00  0.00000000E+00
