Graphene-B4C3 Bridge with lattice parame
   1.00000000000000     
     4.1309411760517714    2.3849999999999998    0.0000000000000000
    -4.1309411760517714    2.3849999999999998    0.0000000000000000
     0.0000000000000000    0.0000000000000000   15.0000000000000000
   B    C 
     4    11
Direct
  0.0275737039657101 -0.0192830100679052  0.1146773200448187
  0.3813941857043254 -0.0191062415859474  0.0985607729424186
  0.0274460069489881  0.3345497395334638  0.0986394764321422
  0.6738451514360384  0.6267789476295771  0.0986191998450921
  0.3514762921073759  0.3043321041592775  0.1004338291379099
  0.7038860463606954 -0.0190859786916625  0.1005364668491960
  0.0273723509849353  0.6569167869647925  0.1004689985912043
  0.0629387494680261  0.4360002852159789  0.3366623313064213
  0.2295963705270933  0.2693950122828122  0.3367530058868641
  0.0628720411794444  0.9359520881075348  0.3366232876348388
  0.2296127940597268  0.7692720223670304  0.3367001254672171
  0.5628424530880798  0.4359405506976210  0.3366861715178678
  0.7294858143161053  0.2692501683471248  0.3366044332159782
  0.5628275637371605  0.9359441224565905  0.3367173773455289
  0.7294578094496174  0.7692440692504072  0.3366965371158375
 
  0.00000000E+00  0.00000000E+00  0.00000000E+00
  0.00000000E+00  0.00000000E+00  0.00000000E+00
  0.00000000E+00  0.00000000E+00  0.00000000E+00
  0.00000000E+00  0.00000000E+00  0.00000000E+00
  0.00000000E+00  0.00000000E+00  0.00000000E+00
  0.00000000E+00  0.00000000E+00  0.00000000E+00
  0.00000000E+00  0.00000000E+00  0.00000000E+00
  0.00000000E+00  0.00000000E+00  0.00000000E+00
  0.00000000E+00  0.00000000E+00  0.00000000E+00
  0.00000000E+00  0.00000000E+00  0.00000000E+00
  0.00000000E+00  0.00000000E+00  0.00000000E+00
  0.00000000E+00  0.00000000E+00  0.00000000E+00
  0.00000000E+00  0.00000000E+00  0.00000000E+00
  0.00000000E+00  0.00000000E+00  0.00000000E+00
  0.00000000E+00  0.00000000E+00  0.00000000E+00
