Graphene-Borophene Bridge with lattice p
   1.00000000000000     
     4.3820885431492567    2.5299999999999985    0.0000000000000000
    -4.3820885431492567    2.5299999999999985    0.0000000000000000
     0.0000000000000000    0.0000000000000000   15.0000000000000000
   B    C 
     8     8
Direct
  0.6707368913468934 -0.0021670192945895  0.1663769640768029
  0.3337933536134872 -0.0021747932795262  0.1662598531143481
  0.0021670192945895  0.3292621086531095  0.1663769640768029
  0.0021747932795262  0.6662056463865152  0.1662598531143480
  0.3335707389154463  0.3290452327314612  0.1667573215321627
  0.6709537672685415  0.6664282610845554  0.1667573215321627
  0.6686568952867238  0.3313421047132780  0.1638479766071397
  0.3354892002799280  0.6645097997200754  0.1672737281551093
  0.2478651175580220  0.2522586210845656  0.4028279122953278
  0.4145304551936279  0.0855892904572870  0.4028354922247753
  0.2477686505569724  0.7522303494430302  0.4027862235788854
  0.4144661676190625  0.5855328323809397  0.4028474124289755
  0.7478395004102922  0.2521594995897105  0.4028564286536188
  0.9144970275854379  0.0855019724145648  0.4028064774228104
  0.7477403789154367  0.7521338824419800  0.4028279122953278
  0.9144097095427161  0.5854685448063747  0.4028354922247753
 
  0.00000000E+00  0.00000000E+00  0.00000000E+00
  0.00000000E+00  0.00000000E+00  0.00000000E+00
  0.00000000E+00  0.00000000E+00  0.00000000E+00
  0.00000000E+00  0.00000000E+00  0.00000000E+00
  0.00000000E+00  0.00000000E+00  0.00000000E+00
  0.00000000E+00  0.00000000E+00  0.00000000E+00
  0.00000000E+00  0.00000000E+00  0.00000000E+00
  0.00000000E+00  0.00000000E+00  0.00000000E+00
  0.00000000E+00  0.00000000E+00  0.00000000E+00
  0.00000000E+00  0.00000000E+00  0.00000000E+00
  0.00000000E+00  0.00000000E+00  0.00000000E+00
  0.00000000E+00  0.00000000E+00  0.00000000E+00
  0.00000000E+00  0.00000000E+00  0.00000000E+00
  0.00000000E+00  0.00000000E+00  0.00000000E+00
  0.00000000E+00  0.00000000E+00  0.00000000E+00
  0.00000000E+00  0.00000000E+00  0.00000000E+00
