Graphene-BC3 Top with lattice parameter 
   1.00000000000000     
     4.3647680350735696    2.5199999999999996    0.0000000000000000
    -4.3647680350735696    2.5199999999999996    0.0000000000000000
     0.0000000000000000    0.0000000000000000   15.0000000000000000
   B    C 
     2    14
Direct
  0.3383346705590395  0.6691678174494631  0.1002368205549244
  0.6716674270968300  0.3358339213227579  0.1002368101125566
  0.1646502837968720  0.3217943172374205  0.0999115024964291
  0.3242973531056356  0.1621484062953788  0.0999105660055399
  0.1646515508717943  0.8428566149024412  0.0999115014142285
  0.8453590779265101  0.1621475686298863  0.0999129476356176
  0.6857130552225364  0.8428556734844608  0.0999135034694552
  0.8453607864749207  0.6832104261382425  0.0999129413626715
  0.1665658758978052  0.3331385404882236  0.3288819180810828
  0.3331361184395910  0.1665678028431026  0.3288830332996131
  0.1665658855264537  0.8334270311010623  0.3288819174875172
  0.3333269110836246  0.6666632043073911  0.3285846375760808
  0.6666602313892879  0.3333299662464081  0.3285846367424853
  0.8334246919997486  0.1665683647329127  0.3288795167789058
  0.6668533982237588  0.8334265503643928  0.3288782308614238
  0.8334246823856110  0.6668557944564649  0.3288795161214886
 
  0.00000000E+00  0.00000000E+00  0.00000000E+00
  0.00000000E+00  0.00000000E+00  0.00000000E+00
  0.00000000E+00  0.00000000E+00  0.00000000E+00
  0.00000000E+00  0.00000000E+00  0.00000000E+00
  0.00000000E+00  0.00000000E+00  0.00000000E+00
  0.00000000E+00  0.00000000E+00  0.00000000E+00
  0.00000000E+00  0.00000000E+00  0.00000000E+00
  0.00000000E+00  0.00000000E+00  0.00000000E+00
  0.00000000E+00  0.00000000E+00  0.00000000E+00
  0.00000000E+00  0.00000000E+00  0.00000000E+00
  0.00000000E+00  0.00000000E+00  0.00000000E+00
  0.00000000E+00  0.00000000E+00  0.00000000E+00
  0.00000000E+00  0.00000000E+00  0.00000000E+00
  0.00000000E+00  0.00000000E+00  0.00000000E+00
  0.00000000E+00  0.00000000E+00  0.00000000E+00
  0.00000000E+00  0.00000000E+00  0.00000000E+00
