Graphene-B4C3 Bridge with lattice parame
   1.00000000000000     
     4.1569219381653042    2.3999999999999995    0.0000000000000000
    -4.1569219381653042    2.3999999999999995    0.0000000000000000
     0.0000000000000000    0.0000000000000000   15.0000000000000000
   B    C 
     4    11
Direct
  0.0183675946474624 -0.0108044459604331  0.0951785727335653
  0.3730157030079195 -0.0104295004168335  0.1036759365753438
  0.0182201953287749  0.3440655469241040  0.1035551056464649
  0.6638309169034941  0.6345282253607051  0.1035578092777230
  0.3425512346139624  0.3130401860592413  0.1028963833321378
  0.6946158163261141 -0.0104054097625031  0.1021064034755059
  0.0178648765737804  0.6650000657640377  0.1027945204171622
  0.0709273819809313  0.4284665133983061  0.3364119295732600
  0.2376163169977754  0.2617904777011837  0.3365408219477880
  0.0710199545368634  0.9285464251198947  0.3364260797074268
  0.2376834221546632  0.7618346090653312  0.3364855656577165
  0.5709193127217279  0.4284724466417161  0.3364524442285803
  0.7376196907307414  0.2618331596586397  0.3364010911340633
  0.5708790777369577  0.9284016311368016  0.3364661720436097
  0.7374958390721554  0.7617607359765057  0.3364304975829884
 
  0.00000000E+00  0.00000000E+00  0.00000000E+00
  0.00000000E+00  0.00000000E+00  0.00000000E+00
  0.00000000E+00  0.00000000E+00  0.00000000E+00
  0.00000000E+00  0.00000000E+00  0.00000000E+00
  0.00000000E+00  0.00000000E+00  0.00000000E+00
  0.00000000E+00  0.00000000E+00  0.00000000E+00
  0.00000000E+00  0.00000000E+00  0.00000000E+00
  0.00000000E+00  0.00000000E+00  0.00000000E+00
  0.00000000E+00  0.00000000E+00  0.00000000E+00
  0.00000000E+00  0.00000000E+00  0.00000000E+00
  0.00000000E+00  0.00000000E+00  0.00000000E+00
  0.00000000E+00  0.00000000E+00  0.00000000E+00
  0.00000000E+00  0.00000000E+00  0.00000000E+00
  0.00000000E+00  0.00000000E+00  0.00000000E+00
  0.00000000E+00  0.00000000E+00  0.00000000E+00
