Graphene-Borophene Bridge with lattice p
   1.00000000000000     
     4.3102084346351512    2.4885000000000002    0.0000000000000000
    -4.3102084346351512    2.4885000000000002    0.0000000000000000
     0.0000000000000000    0.0000000000000000   15.0000000000000000
   B    C 
     8     8
Direct
  0.6770495473980044 -0.0079439922183567  0.1681040193326352
  0.3396847073141895 -0.0078598510585065  0.1688929496416288
  0.0079439922183567  0.3229494526019986  0.1681040193326352
  0.0078598510585065  0.6603142926858127  0.1688929496416288
  0.3393372783170559  0.3229898894654579  0.1670871416698338
  0.6770091105345444  0.6606617216829470  0.1670871416698338
  0.6743074761198836  0.3256915238801186  0.1550069211450800
  0.3411070982103131  0.6588919017896897  0.1788647822656429
  0.2419740987158741  0.2580750745755572  0.4014293993284668
  0.4086450726741989  0.0913715276419725  0.4013296853499619
  0.2418443075009325  0.7581546924990700  0.4012269233110713
  0.4086511313790962  0.5913478686209059  0.4013232494518916
  0.7420082658240430  0.2579907341759600  0.4011630531509610
  0.9086863316192293  0.0913126683807732  0.4012620133636726
  0.7419239254244454  0.7580249012841286  0.4014293993284668
  0.9086274723580298  0.5913539273258031  0.4013296853499619
 
  0.00000000E+00  0.00000000E+00  0.00000000E+00
  0.00000000E+00  0.00000000E+00  0.00000000E+00
  0.00000000E+00  0.00000000E+00  0.00000000E+00
  0.00000000E+00  0.00000000E+00  0.00000000E+00
  0.00000000E+00  0.00000000E+00  0.00000000E+00
  0.00000000E+00  0.00000000E+00  0.00000000E+00
  0.00000000E+00  0.00000000E+00  0.00000000E+00
  0.00000000E+00  0.00000000E+00  0.00000000E+00
  0.00000000E+00  0.00000000E+00  0.00000000E+00
  0.00000000E+00  0.00000000E+00  0.00000000E+00
  0.00000000E+00  0.00000000E+00  0.00000000E+00
  0.00000000E+00  0.00000000E+00  0.00000000E+00
  0.00000000E+00  0.00000000E+00  0.00000000E+00
  0.00000000E+00  0.00000000E+00  0.00000000E+00
  0.00000000E+00  0.00000000E+00  0.00000000E+00
  0.00000000E+00  0.00000000E+00  0.00000000E+00
