Graphene-Borophene Hollow_2 with lattice
   1.00000000000000     
     4.3119404854427197    2.4895000000000000    0.0000000000000000
    -4.3119404854427197    2.4895000000000000    0.0000000000000000
     0.0000000000000000    0.0000000000000000   15.0000000000000000
    B
    8
Direct
  0.6695253947495639 -0.0000515514746577  0.0998559452963220
  0.3304220537757808 -0.0000515514746577  0.0998559452963220
  0.0000515514746577  0.3304736052504384  0.0998559452963220
  0.0000515514746577  0.6695769462242215  0.0998559452963220
  0.3304220537757808  0.3304736052504384  0.0998559452963220
  0.6695253947495639  0.6695769462242215  0.0998559452963220
  0.6666659999999993  0.3333330000000032  0.0941177180019273
  0.3333330000000032  0.6666659999999993  0.1062017302059025
