Graphene-Borophene Top with lattice para
   1.00000000000000     
     4.2998161297897379    2.4824999999999999    0.0000000000000000
    -4.2998161297897379    2.4824999999999999    0.0000000000000000
     0.0000000000000000    0.0000000000000000   15.0000000000000000
   B    C 
     8     8
Direct
  0.6686406336953824  0.0000301348442788  0.1673583088703153
  0.3313885011488985  0.0000301348442788  0.1673583088703153
 -0.0000301348442788  0.3313583663046198  0.1673583088703153
 -0.0000301348442788  0.6686104988511036  0.1673583088703153
  0.3313885011488985  0.3313583663046198  0.1673583088703153
  0.6686406336953824  0.6686104988511036  0.1673583088703153
  0.6666659999999993  0.3333330000000032  0.1537218320569483
  0.3333330000000032  0.6666659999999993  0.1808825108946418
  0.1666482625757847  0.3332975251515740  0.4004363417487860
  0.3333300814265856  0.1666645407132905  0.4003348330103372
  0.1666482625757847  0.8333507374242183  0.4004363417487860
  0.3333330000000032  0.6666659999999993  0.4004849484353438
  0.6666659999999993  0.3333330000000032  0.4003139977804974
  0.8333344592867121  0.1666645407132905  0.4003348330103372
  0.6667014748484283  0.8333507374242183  0.4004363417487860
  0.8333344592867121  0.6666689185734171  0.4003348330103372
 
  0.00000000E+00  0.00000000E+00  0.00000000E+00
  0.00000000E+00  0.00000000E+00  0.00000000E+00
  0.00000000E+00  0.00000000E+00  0.00000000E+00
  0.00000000E+00  0.00000000E+00  0.00000000E+00
  0.00000000E+00  0.00000000E+00  0.00000000E+00
  0.00000000E+00  0.00000000E+00  0.00000000E+00
  0.00000000E+00  0.00000000E+00  0.00000000E+00
  0.00000000E+00  0.00000000E+00  0.00000000E+00
  0.00000000E+00  0.00000000E+00  0.00000000E+00
  0.00000000E+00  0.00000000E+00  0.00000000E+00
  0.00000000E+00  0.00000000E+00  0.00000000E+00
  0.00000000E+00  0.00000000E+00  0.00000000E+00
  0.00000000E+00  0.00000000E+00  0.00000000E+00
  0.00000000E+00  0.00000000E+00  0.00000000E+00
  0.00000000E+00  0.00000000E+00  0.00000000E+00
  0.00000000E+00  0.00000000E+00  0.00000000E+00
