Graphene-B4C3 Hollow 1 with lattice para
   1.00000000000000     
     4.1785725732599168    2.4125000000000001    0.0000000000000000
    -4.1785725732599168    2.4125000000000001    0.0000000000000000
     0.0000000000000000    0.0000000000000000   15.0000000000000000
   B    C 
     4    11
Direct
  0.0303515459102887 -0.0209810938248905  0.0951637249910920
  0.3853554492408281 -0.0199754253664424  0.1036587024671985
  0.0304545951289292  0.3343015057133294  0.1029535492481448
  0.6750809799176081  0.6244682796992176  0.1031522632560617
  0.3537884842828778  0.3031167006087758  0.1022235531117715
  0.7066297946788396 -0.0206920408628083  0.1016968278070072
  0.0298077845116331  0.6553032455220696  0.1021551436239012
  0.0883833939601009  0.4093737595086081  0.3376657205298093
  0.2548203770392223  0.2424385541627283  0.3377159860287889
  0.0883119683248233  0.9094894532008547  0.3375289714484535
  0.2550402908715770  0.7427869549045777  0.3373692211910759
  0.5884273447608207  0.4095149238790347  0.3374295030667994
  0.7550583766528509  0.2428380307312697  0.3376368593358905
  0.5882543248460295  0.9091308367293923  0.3379299436389843
  0.7550848454291212  0.7427647598387512  0.3374993635883433
 
  0.00000000E+00  0.00000000E+00  0.00000000E+00
  0.00000000E+00  0.00000000E+00  0.00000000E+00
  0.00000000E+00  0.00000000E+00  0.00000000E+00
  0.00000000E+00  0.00000000E+00  0.00000000E+00
  0.00000000E+00  0.00000000E+00  0.00000000E+00
  0.00000000E+00  0.00000000E+00  0.00000000E+00
  0.00000000E+00  0.00000000E+00  0.00000000E+00
  0.00000000E+00  0.00000000E+00  0.00000000E+00
  0.00000000E+00  0.00000000E+00  0.00000000E+00
  0.00000000E+00  0.00000000E+00  0.00000000E+00
  0.00000000E+00  0.00000000E+00  0.00000000E+00
  0.00000000E+00  0.00000000E+00  0.00000000E+00
  0.00000000E+00  0.00000000E+00  0.00000000E+00
  0.00000000E+00  0.00000000E+00  0.00000000E+00
  0.00000000E+00  0.00000000E+00  0.00000000E+00
