Graphene-B4C3 Hollow 1 with lattice para
   1.00000000000000     
     4.1967591067393890    2.4229999999999996    0.0000000000000000
    -4.1967591067393890    2.4229999999999996    0.0000000000000000
     0.0000000000000000    0.0000000000000000   15.0000000000000000
   B    C 
     4    11
Direct
  0.0044935228580706  0.0025605863370623  0.1051126464077739
  0.3591876822222112  0.0023760914565295  0.1005784107583057
  0.0046887500502871  0.3572417157100256  0.1009233575212418
  0.6500160594428337  0.6476354668777764  0.1008124417154101
  0.3284858568311353  0.3262657944540652  0.1013614085888694
  0.6806779224870880  0.0022941173680486  0.1016523301219752
  0.0045689996620593  0.6786029249582569  0.1013955386059127
  0.1107318097260221  0.3891906505067678  0.3374584229278448
  0.2773899610036361  0.2224545046106759  0.3375888992960746
  0.1107585426511050  0.8892464992003762  0.3375476291073836
  0.2774209473178508  0.7225260891729058  0.3374161543775970
  0.6107560092185456  0.3892219888059483  0.3374272551227463
  0.7774517205398911  0.2225184905167094  0.3374565533671237
  0.6107759145137582  0.8892092997755502  0.3375546885510591
  0.7774458570310561  0.7225342246937695  0.3374935968640030
 
  0.00000000E+00  0.00000000E+00  0.00000000E+00
  0.00000000E+00  0.00000000E+00  0.00000000E+00
  0.00000000E+00  0.00000000E+00  0.00000000E+00
  0.00000000E+00  0.00000000E+00  0.00000000E+00
  0.00000000E+00  0.00000000E+00  0.00000000E+00
  0.00000000E+00  0.00000000E+00  0.00000000E+00
  0.00000000E+00  0.00000000E+00  0.00000000E+00
  0.00000000E+00  0.00000000E+00  0.00000000E+00
  0.00000000E+00  0.00000000E+00  0.00000000E+00
  0.00000000E+00  0.00000000E+00  0.00000000E+00
  0.00000000E+00  0.00000000E+00  0.00000000E+00
  0.00000000E+00  0.00000000E+00  0.00000000E+00
  0.00000000E+00  0.00000000E+00  0.00000000E+00
  0.00000000E+00  0.00000000E+00  0.00000000E+00
  0.00000000E+00  0.00000000E+00  0.00000000E+00
