Graphene-B4C3 Hollow 1 with lattice para
   1.00000000000000     
     4.1967591067393890    2.4229999999999996    0.0000000000000000
    -4.1967591067393890    2.4229999999999996    0.0000000000000000
     0.0000000000000000    0.0000000000000000   15.0000000000000000
   B    C 
     4    11
Direct
  0.0041608096105578  0.0026842801141686  0.1196933550217726
  0.3563348571373327  0.0028232029063135  0.0976571098557336
  0.0042136525241384  0.3550042227131827  0.0976873955557831
  0.6519856649515475  0.6505732999000057  0.0976647327885326
  0.3264099095402269  0.3249612285520033  0.1003089434053531
  0.6820889201503152  0.0027878263927876  0.1003013563630121
  0.0041954605711679  0.6805250444918924  0.1002736252724442
  0.1110745057205869  0.3889404990562686  0.3372732889917763
  0.2778470267427082  0.2222842400471595  0.3373105147436697
  0.1112046990875562  0.8889543666477859  0.3372788536671044
  0.2778738307185197  0.7222200317972749  0.3372357060137199
  0.6110907415789243  0.3888622643086454  0.3372332288883549
  0.7777567932303699  0.2222447810516875  0.3372780305361155
  0.6110177064854252  0.8888637452303139  0.3373049481875391
  0.7775949775061733  0.7221494112349783  0.3372782440424098
 
  0.00000000E+00  0.00000000E+00  0.00000000E+00
  0.00000000E+00  0.00000000E+00  0.00000000E+00
  0.00000000E+00  0.00000000E+00  0.00000000E+00
  0.00000000E+00  0.00000000E+00  0.00000000E+00
  0.00000000E+00  0.00000000E+00  0.00000000E+00
  0.00000000E+00  0.00000000E+00  0.00000000E+00
  0.00000000E+00  0.00000000E+00  0.00000000E+00
  0.00000000E+00  0.00000000E+00  0.00000000E+00
  0.00000000E+00  0.00000000E+00  0.00000000E+00
  0.00000000E+00  0.00000000E+00  0.00000000E+00
  0.00000000E+00  0.00000000E+00  0.00000000E+00
  0.00000000E+00  0.00000000E+00  0.00000000E+00
  0.00000000E+00  0.00000000E+00  0.00000000E+00
  0.00000000E+00  0.00000000E+00  0.00000000E+00
  0.00000000E+00  0.00000000E+00  0.00000000E+00
