Graphene-Borophene Hollow 1 with lattice
   1.00000000000000     
     4.3119404854427197    2.4895000000000000    0.0000000000000000
    -4.3119404854427197    2.4895000000000000    0.0000000000000000
     0.0000000000000000    0.0000000000000000   15.0000000000000000
   B    C 
     8     8
Direct
  0.6710911757190089 -0.0019047950239485  0.1670213150611893
  0.3326028316231629 -0.0018542291615746  0.1671099144219537
  0.0019047950239485  0.3289078242809933  0.1670213150611893
  0.0018542291615746  0.6673961683768407  0.1671099144219537
  0.3324962350858501  0.3288850486530913  0.1666986391979823
  0.6711139513469114  0.6675027649141523  0.1666986391979823
  0.6683252831648139  0.3316737168351890  0.1586758878020686
  0.3350266141293510  0.6649723858706511  0.1757258998873877
  0.2759823013646054  0.2240347160260035  0.4025521578458830
  0.4426704629168988  0.0573930029187236  0.4026453819086946
  0.2759635708964889  0.7240354291035128  0.4026743561401864
  0.4426748320804512  0.5573241679195519  0.4026900345988608
  0.7759584982625040  0.2240405017374989  0.4025669143514802
  0.9426468270580846  0.0573521729419176  0.4024120903486212
  0.7759642839739989  0.7240166986353972  0.4025521578458830
  0.9426059970812781  0.5573285370831036  0.4026453819086946
 
  0.00000000E+00  0.00000000E+00  0.00000000E+00
  0.00000000E+00  0.00000000E+00  0.00000000E+00
  0.00000000E+00  0.00000000E+00  0.00000000E+00
  0.00000000E+00  0.00000000E+00  0.00000000E+00
  0.00000000E+00  0.00000000E+00  0.00000000E+00
  0.00000000E+00  0.00000000E+00  0.00000000E+00
  0.00000000E+00  0.00000000E+00  0.00000000E+00
  0.00000000E+00  0.00000000E+00  0.00000000E+00
  0.00000000E+00  0.00000000E+00  0.00000000E+00
  0.00000000E+00  0.00000000E+00  0.00000000E+00
  0.00000000E+00  0.00000000E+00  0.00000000E+00
  0.00000000E+00  0.00000000E+00  0.00000000E+00
  0.00000000E+00  0.00000000E+00  0.00000000E+00
  0.00000000E+00  0.00000000E+00  0.00000000E+00
  0.00000000E+00  0.00000000E+00  0.00000000E+00
  0.00000000E+00  0.00000000E+00  0.00000000E+00
