Graphene-B4C3 Bridge with lattice parame
   1.00000000000000     
     4.1958930813356048    2.4224999999999999    0.0000000000000000
    -4.1958930813356048    2.4224999999999999    0.0000000000000000
     0.0000000000000000    0.0000000000000000   15.0000000000000000
   B    C 
     4    11
Direct
  0.0080887326642277 -0.0009269420466007  0.0997313895834461
  0.3631997725059006 -0.0009492023462611  0.1013703377450839
  0.0080636988566691  0.3540711461317295  0.1014115142989895
  0.6532275116805807  0.6438623435836622  0.1014059495133973
  0.3319373764274289  0.3225551389380982  0.1010715610998943
  0.6846199548258873 -0.0008988597002904  0.1012484636809596
  0.0081824096455667  0.6753521055257213  0.1011300783981239
  0.0798706928840527  0.4199549417657029  0.3372247018440731
  0.2464984048287310  0.2533038397399717  0.3373211078409679
  0.0798566203311369  0.9199751692071239  0.3372489274651617
  0.2465325579218030  0.7533445323281787  0.3372177688112832
  0.5798063073538430  0.4199487979383779  0.3372274548084698
  0.7464717600831482  0.2532903559690352  0.3372035714125933
  0.5797998315858905  0.9199175477446737  0.3373426699349746
  0.7464717017384551  0.7532997518875739  0.3372238368959179
 
  0.00000000E+00  0.00000000E+00  0.00000000E+00
  0.00000000E+00  0.00000000E+00  0.00000000E+00
  0.00000000E+00  0.00000000E+00  0.00000000E+00
  0.00000000E+00  0.00000000E+00  0.00000000E+00
  0.00000000E+00  0.00000000E+00  0.00000000E+00
  0.00000000E+00  0.00000000E+00  0.00000000E+00
  0.00000000E+00  0.00000000E+00  0.00000000E+00
  0.00000000E+00  0.00000000E+00  0.00000000E+00
  0.00000000E+00  0.00000000E+00  0.00000000E+00
  0.00000000E+00  0.00000000E+00  0.00000000E+00
  0.00000000E+00  0.00000000E+00  0.00000000E+00
  0.00000000E+00  0.00000000E+00  0.00000000E+00
  0.00000000E+00  0.00000000E+00  0.00000000E+00
  0.00000000E+00  0.00000000E+00  0.00000000E+00
  0.00000000E+00  0.00000000E+00  0.00000000E+00
