Graphene-Borophene Bridge with lattice p
   1.00000000000000     
     4.2954860027708150    2.4799999999999995    0.0000000000000000
    -4.2954860027708150    2.4799999999999995    0.0000000000000000
     0.0000000000000000    0.0000000000000000   15.0000000000000000
   B    C 
     8     8
Direct
  0.6719974696305931 -0.0030004599295760  0.1680990223171681
  0.3343470526614765 -0.0029357850170108  0.1680501632190313
  0.0030004599295760  0.3280015303694093  0.1680990223171681
  0.0029357850170108  0.6656519473385260  0.1680501632190313
  0.3341252714576441  0.3281574509537589  0.1663799704553456
  0.6718415490462433  0.6658737285423586  0.1663799704553456
  0.6693078988582954  0.3306911011417069  0.1540603256408453
  0.3359977982728868  0.6640012017271150  0.1810125084187728
  0.2470662388301618  0.2529247817789269  0.4015554335625180
  0.4137362918152046  0.0863189583718570  0.4015445698672547
  0.2470526670022197  0.7529463329977828  0.4015902281440635
  0.4137358904689780  0.5862631095310245  0.4016507995389772
  0.7470478265921806  0.2529511734078221  0.4015156793854526
  0.9137132072350124  0.0862857927649907  0.4014454733626248
  0.7470742182210757  0.7529327611698416  0.4015554335625180
  0.9136800416281454  0.5862627081847982  0.4015445698672547
 
  0.00000000E+00  0.00000000E+00  0.00000000E+00
  0.00000000E+00  0.00000000E+00  0.00000000E+00
  0.00000000E+00  0.00000000E+00  0.00000000E+00
  0.00000000E+00  0.00000000E+00  0.00000000E+00
  0.00000000E+00  0.00000000E+00  0.00000000E+00
  0.00000000E+00  0.00000000E+00  0.00000000E+00
  0.00000000E+00  0.00000000E+00  0.00000000E+00
  0.00000000E+00  0.00000000E+00  0.00000000E+00
  0.00000000E+00  0.00000000E+00  0.00000000E+00
  0.00000000E+00  0.00000000E+00  0.00000000E+00
  0.00000000E+00  0.00000000E+00  0.00000000E+00
  0.00000000E+00  0.00000000E+00  0.00000000E+00
  0.00000000E+00  0.00000000E+00  0.00000000E+00
  0.00000000E+00  0.00000000E+00  0.00000000E+00
  0.00000000E+00  0.00000000E+00  0.00000000E+00
  0.00000000E+00  0.00000000E+00  0.00000000E+00
