Graphene-BC3 Bridge with lattice paramet
   1.00000000000000     
     4.3907487971871024    2.5349999999999993    0.0000000000000000
    -4.3907487971871024    2.5349999999999993    0.0000000000000000
     0.0000000000000000    0.0000000000000000   15.0000000000000000
   B    C 
     2    14
Direct
  0.3283710066896456  0.6798876210956230  0.1006074295692395
  0.6617136799874779  0.3465418033713424  0.1004468178543634
  0.1544385370108719  0.3321895490680966  0.1002750233767576
  0.3139045855550187  0.1727486287405688  0.1003788713899918
  0.1544328375097979  0.8538028839848907  0.1004459204794725
  0.8355764299510832  0.1726736797512869  0.1002214254010273
  0.6760584559050544  0.8538221881211192  0.1002826074418223
  0.8355386043479456  0.6943645863379644  0.1003881250007860
  0.2599759586640386  0.2391600595701169  0.3260239912246959
  0.4265787871162706  0.0725975790806240  0.3260135659519218
  0.2599452271537689  0.7392987563163613  0.3257800090418258
  0.4267011592864539  0.5725372059559306  0.3258948623820327
  0.7599972112663425  0.2392402520730231  0.3258490928746340
  0.9267042487332187  0.0725331881571259  0.3260285267716597
  0.7600807840307133  0.7392667079479873  0.3260241797911699
  0.9266411534590050  0.5726606437612614  0.3260062181152569
 
  0.00000000E+00  0.00000000E+00  0.00000000E+00
  0.00000000E+00  0.00000000E+00  0.00000000E+00
  0.00000000E+00  0.00000000E+00  0.00000000E+00
  0.00000000E+00  0.00000000E+00  0.00000000E+00
  0.00000000E+00  0.00000000E+00  0.00000000E+00
  0.00000000E+00  0.00000000E+00  0.00000000E+00
  0.00000000E+00  0.00000000E+00  0.00000000E+00
  0.00000000E+00  0.00000000E+00  0.00000000E+00
  0.00000000E+00  0.00000000E+00  0.00000000E+00
  0.00000000E+00  0.00000000E+00  0.00000000E+00
  0.00000000E+00  0.00000000E+00  0.00000000E+00
  0.00000000E+00  0.00000000E+00  0.00000000E+00
  0.00000000E+00  0.00000000E+00  0.00000000E+00
  0.00000000E+00  0.00000000E+00  0.00000000E+00
  0.00000000E+00  0.00000000E+00  0.00000000E+00
  0.00000000E+00  0.00000000E+00  0.00000000E+00
