Graphene-Borophene Top with lattice para
   1.00000000000000     
     4.2695052406572822    2.4649999999999999    0.0000000000000000
    -4.2695052406572822    2.4649999999999999    0.0000000000000000
     0.0000000000000000    0.0000000000000000   15.0000000000000000
   B    C 
     8     8
Direct
  0.6688662337080694  0.0000975974272981  0.1634155840931616
  0.3312303637192308  0.0000975974272981  0.1634155840931616
 -0.0000975974272981  0.3311327662919327  0.1634155840931616
 -0.0000975974272981  0.6687686362807717  0.1634155840931616
  0.3312303637192308  0.3311327662919327  0.1634155840931616
  0.6688662337080694  0.6687686362807717  0.1634155840931616
  0.6666659999999993  0.3333330000000032  0.1789992165070051
  0.3333330000000032  0.6666659999999993  0.1474788217149972
  0.1665739471694688  0.3331488943389422  0.4042946260923230
  0.3333481248667053  0.1666735624333504  0.4044344919344073
  0.1665739471694687  0.8334250528305333  0.4042946260923230
  0.3333330000000032  0.6666659999999993  0.4044093967974295
  0.6666659999999993  0.3333330000000032  0.4042983730080981
  0.8333254375666521  0.1666735624333503  0.4044344919344073
  0.6668501056610602  0.8334250528305333  0.4042946260923230
  0.8333254375666520  0.6666508751332967  0.4044344919344073
 
  0.00000000E+00  0.00000000E+00  0.00000000E+00
  0.00000000E+00  0.00000000E+00  0.00000000E+00
  0.00000000E+00  0.00000000E+00  0.00000000E+00
  0.00000000E+00  0.00000000E+00  0.00000000E+00
  0.00000000E+00  0.00000000E+00  0.00000000E+00
  0.00000000E+00  0.00000000E+00  0.00000000E+00
  0.00000000E+00  0.00000000E+00  0.00000000E+00
  0.00000000E+00  0.00000000E+00  0.00000000E+00
  0.00000000E+00  0.00000000E+00  0.00000000E+00
  0.00000000E+00  0.00000000E+00  0.00000000E+00
  0.00000000E+00  0.00000000E+00  0.00000000E+00
  0.00000000E+00  0.00000000E+00  0.00000000E+00
  0.00000000E+00  0.00000000E+00  0.00000000E+00
  0.00000000E+00  0.00000000E+00  0.00000000E+00
  0.00000000E+00  0.00000000E+00  0.00000000E+00
  0.00000000E+00  0.00000000E+00  0.00000000E+00
