Graphene-Borophene Bridge with lattice p
   1.00000000000000     
     4.3171366378654268    2.4925000000000002    0.0000000000000000
    -4.3171366378654268    2.4925000000000002    0.0000000000000000
     0.0000000000000000    0.0000000000000000   15.0000000000000000
   B    C 
     8     8
Direct
  0.6700108449882354 -0.0006405567114353  0.1660019436902725
  0.3311498624181383 -0.0004721334273809  0.1663753125393191
  0.0006405567114353  0.3299881550117669  0.1660019436902725
  0.0004721334273809  0.6688491375818643  0.1663753125393191
  0.3310755781440678  0.3297644966532643  0.1660347836918869
  0.6702345033467383  0.6689234218559353  0.1660347836918870
  0.6671765457150727  0.3328224542849306  0.1600853120910117
  0.3335296143938643  0.6664693856061383  0.1718160717172862
  0.2494263180422036  0.2505431310775619  0.4029662788420363
  0.4161268997979993  0.0838560102727157  0.4030005301036768
  0.2493935050034131  0.7506054949965892  0.4030184199553674
  0.4161791591439759  0.5838198408560270  0.4030586291193017
  0.7494714236721516  0.2505275763278507  0.4029373365444848
  0.9161738632123001  0.0838251367877026  0.4028598661715380
  0.7494558689224405  0.7505726819577987  0.4029662788420363
  0.9161429897272869  0.5838721002020032  0.4030005301036768
 
  0.00000000E+00  0.00000000E+00  0.00000000E+00
  0.00000000E+00  0.00000000E+00  0.00000000E+00
  0.00000000E+00  0.00000000E+00  0.00000000E+00
  0.00000000E+00  0.00000000E+00  0.00000000E+00
  0.00000000E+00  0.00000000E+00  0.00000000E+00
  0.00000000E+00  0.00000000E+00  0.00000000E+00
  0.00000000E+00  0.00000000E+00  0.00000000E+00
  0.00000000E+00  0.00000000E+00  0.00000000E+00
  0.00000000E+00  0.00000000E+00  0.00000000E+00
  0.00000000E+00  0.00000000E+00  0.00000000E+00
  0.00000000E+00  0.00000000E+00  0.00000000E+00
  0.00000000E+00  0.00000000E+00  0.00000000E+00
  0.00000000E+00  0.00000000E+00  0.00000000E+00
  0.00000000E+00  0.00000000E+00  0.00000000E+00
  0.00000000E+00  0.00000000E+00  0.00000000E+00
  0.00000000E+00  0.00000000E+00  0.00000000E+00
