Graphene-B4C3 Hollow 1 with lattice para
   1.00000000000000     
     4.2019552591620952    2.4259999999999993    0.0000000000000000
    -4.2019552591620952    2.4259999999999993    0.0000000000000000
     0.0000000000000000    0.0000000000000000   15.0000000000000000
   B    C 
     4    11
Direct
  0.0353408723837069 -0.0249101927608426  0.1010238847906316
  0.3902769164188094 -0.0248322549348062  0.0993338076602906
  0.0351136203123954  0.3296167861474787  0.0996638771717629
  0.6804612845451289  0.6200460833952585  0.0995710666329926
  0.3590861599456477  0.2986101604501997  0.0996431362293378
  0.7116181749351945 -0.0248000240344113  0.0997443161822632
  0.0349958404948340  0.6514681042728411  0.0997036811464779
  0.0839201885342041  0.4131800660637943  0.3391316276015808
  0.2506146990066477  0.2465132577221073  0.3391808944827546
  0.0839574660564807  0.9132117768703653  0.3391804132320847
  0.2506622895001456  0.7465343854762068  0.3391062518419140
  0.5838872594029615  0.4131506216512129  0.3391736880931332
  0.7505638034023309  0.2465057013717795  0.3390220444657521
  0.5838326621855194  0.9131231638615086  0.3391950999099334
  0.7505183184315430  0.7464608088917775  0.3391055438924125
 
  0.00000000E+00  0.00000000E+00  0.00000000E+00
  0.00000000E+00  0.00000000E+00  0.00000000E+00
  0.00000000E+00  0.00000000E+00  0.00000000E+00
  0.00000000E+00  0.00000000E+00  0.00000000E+00
  0.00000000E+00  0.00000000E+00  0.00000000E+00
  0.00000000E+00  0.00000000E+00  0.00000000E+00
  0.00000000E+00  0.00000000E+00  0.00000000E+00
  0.00000000E+00  0.00000000E+00  0.00000000E+00
  0.00000000E+00  0.00000000E+00  0.00000000E+00
  0.00000000E+00  0.00000000E+00  0.00000000E+00
  0.00000000E+00  0.00000000E+00  0.00000000E+00
  0.00000000E+00  0.00000000E+00  0.00000000E+00
  0.00000000E+00  0.00000000E+00  0.00000000E+00
  0.00000000E+00  0.00000000E+00  0.00000000E+00
  0.00000000E+00  0.00000000E+00  0.00000000E+00
