Graphene-B4C3 Bridge with lattice parame
   1.00000000000000     
     4.2123475640075094    2.4319999999999999    0.0000000000000000
    -4.2123475640075094    2.4319999999999999    0.0000000000000000
     0.0000000000000000    0.0000000000000000   15.0000000000000000
   B    C 
     4    11
Direct
  0.0205465035872192 -0.0126793534906429  0.1029090496150385
  0.3755543042612529 -0.0124942156071891  0.1007112143559532
  0.0204753254212853  0.3422059640983939  0.1005839459618987
  0.6657180520782412  0.6322054333204397  0.1006426991063674
  0.3441557413344037  0.3106333920103267  0.1008894238198558
  0.6972062567686230 -0.0125661570293842  0.1007372245238995
  0.0202170791548966  0.6636051438414683  0.1009013289697747
  0.0689855345108726  0.4301971859976544  0.3372014180757759
  0.2356284704403531  0.2635158938330757  0.3373630530971521
  0.0689828987697146  0.9302315889001798  0.3372652608138306
  0.2356286250144955  0.7635806757002339  0.3372429831895232
  0.5690455605998063  0.4302504872850426  0.3372372098017210
  0.7357096921268388  0.2636141666098842  0.3371496968040718
  0.5690278572252858  0.9302380663644385  0.3372827730282768
  0.7357454320400332  0.7635623948327764  0.3372620521701968
 
  0.00000000E+00  0.00000000E+00  0.00000000E+00
  0.00000000E+00  0.00000000E+00  0.00000000E+00
  0.00000000E+00  0.00000000E+00  0.00000000E+00
  0.00000000E+00  0.00000000E+00  0.00000000E+00
  0.00000000E+00  0.00000000E+00  0.00000000E+00
  0.00000000E+00  0.00000000E+00  0.00000000E+00
  0.00000000E+00  0.00000000E+00  0.00000000E+00
  0.00000000E+00  0.00000000E+00  0.00000000E+00
  0.00000000E+00  0.00000000E+00  0.00000000E+00
  0.00000000E+00  0.00000000E+00  0.00000000E+00
  0.00000000E+00  0.00000000E+00  0.00000000E+00
  0.00000000E+00  0.00000000E+00  0.00000000E+00
  0.00000000E+00  0.00000000E+00  0.00000000E+00
  0.00000000E+00  0.00000000E+00  0.00000000E+00
  0.00000000E+00  0.00000000E+00  0.00000000E+00
