Graphene-B4C3 Top with lattice parameter
   1.00000000000000     
     4.1309411760517714    2.3849999999999998    0.0000000000000000
    -4.1309411760517714    2.3849999999999998    0.0000000000000000
     0.0000000000000000    0.0000000000000000   15.0000000000000000
   B    C 
     4    11
Direct
  0.0040610777989753  0.0026950784243839  0.1137801948702905
  0.3580890951487742  0.0028854284286058  0.0984470743536512
  0.0038657362278903  0.3565287349715955  0.0984474886999085
  0.6502251158523034  0.6486671999018456  0.0984440045711737
  0.3279304601784110  0.3263507754955721  0.1002031739693078
  0.6803997326741061  0.0029038380541777  0.1002003663632703
  0.0038459576748548  0.6788202182746441  0.1001966018167205
  0.0001265855543103  0.5000703965870563  0.3342333064107579
  0.1668034924932777  0.3334961787258512  0.3342765084355097
  0.0001089264942442  0.0000718196121356  0.3341440426063425
  0.1668388963171841  0.8333791268010956  0.3342803981593071
  0.5001137630483462  0.5000949755881307  0.3342365193451607
  0.6667764418336931  0.3334067725553316  0.3341148595345464
  0.5000885969346974  0.0000546352235686  0.3342320068440484
  0.6666867884356250  0.8333421546893326  0.3342761206866873
 
  0.00000000E+00  0.00000000E+00  0.00000000E+00
  0.00000000E+00  0.00000000E+00  0.00000000E+00
  0.00000000E+00  0.00000000E+00  0.00000000E+00
  0.00000000E+00  0.00000000E+00  0.00000000E+00
  0.00000000E+00  0.00000000E+00  0.00000000E+00
  0.00000000E+00  0.00000000E+00  0.00000000E+00
  0.00000000E+00  0.00000000E+00  0.00000000E+00
  0.00000000E+00  0.00000000E+00  0.00000000E+00
  0.00000000E+00  0.00000000E+00  0.00000000E+00
  0.00000000E+00  0.00000000E+00  0.00000000E+00
  0.00000000E+00  0.00000000E+00  0.00000000E+00
  0.00000000E+00  0.00000000E+00  0.00000000E+00
  0.00000000E+00  0.00000000E+00  0.00000000E+00
  0.00000000E+00  0.00000000E+00  0.00000000E+00
  0.00000000E+00  0.00000000E+00  0.00000000E+00
