Graphene-B4C3 Hollow_2 with lattice para
   1.00000000000000     
     4.1967591067393899    2.4230000000000000    0.0000000000000000
    -4.1967591067393899    2.4230000000000000    0.0000000000000000
     0.0000000000000000    0.0000000000000000   15.0000000000000000
   B    C 
     4    11
Direct
  0.0044335336195687  0.0029437636033549  0.0989970421976309
  0.3595859782302711  0.0029488620262867  0.1003947934129954
  0.0044411831161355  0.3580878072810023  0.1003968004687152
  0.6493042362798747  0.6478126799305883  0.1003988411064825
  0.3281499739210929  0.3266508329385402  0.1001709061379756
  0.6807770114057377  0.0029649998840213  0.1001728864259519
  0.0044639214874138  0.6792950431588736  0.1001734437171535
  0.1664158658288599  0.3331741754214690  0.3376427689833648
  0.3331003512121171  0.1664894414872649  0.3376445069906353
  0.1664519651539536  0.8331936767728862  0.3376471070496621
  0.3331008836336977  0.6665075904275497  0.3375375505363749
  0.6664319707416624  0.3331728377518033  0.3375375526398443
  0.8331195478014095  0.1665257313868906  0.3376464752290858
  0.6664327749792989  0.8331579743710549  0.3376432931933806
  0.8330848025889281  0.6665085835584250  0.3376420319107467
 
  0.00000000E+00  0.00000000E+00  0.00000000E+00
  0.00000000E+00  0.00000000E+00  0.00000000E+00
  0.00000000E+00  0.00000000E+00  0.00000000E+00
  0.00000000E+00  0.00000000E+00  0.00000000E+00
  0.00000000E+00  0.00000000E+00  0.00000000E+00
  0.00000000E+00  0.00000000E+00  0.00000000E+00
  0.00000000E+00  0.00000000E+00  0.00000000E+00
  0.00000000E+00  0.00000000E+00  0.00000000E+00
  0.00000000E+00  0.00000000E+00  0.00000000E+00
  0.00000000E+00  0.00000000E+00  0.00000000E+00
  0.00000000E+00  0.00000000E+00  0.00000000E+00
  0.00000000E+00  0.00000000E+00  0.00000000E+00
  0.00000000E+00  0.00000000E+00  0.00000000E+00
  0.00000000E+00  0.00000000E+00  0.00000000E+00
  0.00000000E+00  0.00000000E+00  0.00000000E+00
