Graphene-B4C3 Bridge with lattice parame
   1.00000000000000     
     4.1924289797204670    2.4205000000000001    0.0000000000000000
    -4.1924289797204670    2.4205000000000001    0.0000000000000000
     0.0000000000000000    0.0000000000000000   15.0000000000000000
   B    C 
     4    11
Direct
  0.0086239250827788 -0.0011794725348479  0.1005795716263170
  0.3635986874221191 -0.0012792440066250  0.1014026330408539
  0.0086622176468934  0.3535783363816588  0.1012993962763635
  0.6537366091184541  0.6435654697241406  0.1013335134216028
  0.3322277453450994  0.3222251927371313  0.1010924106880619
  0.6848785148344555 -0.0014959655802652  0.1012088798332912
  0.0085818735170838  0.6748125027630125  0.1011318545568638
  0.0794910484347457  0.4203360516371100  0.3371119790450973
  0.2461459109916605  0.2536576798681100  0.3372429338135177
  0.0794911895194324  0.9203639063523630  0.3371066149653107
  0.2461919483974636  0.7536626697510728  0.3371878342890658
  0.5794215303922436  0.4203186288132943  0.3371049409638338
  0.7461029880913321  0.2536274166806319  0.3371885001679934
  0.5794078212068601  0.9202952817089398  0.3372215176387421
  0.7460653233326991  0.7536122123709700  0.3371667530064210
 
  0.00000000E+00  0.00000000E+00  0.00000000E+00
  0.00000000E+00  0.00000000E+00  0.00000000E+00
  0.00000000E+00  0.00000000E+00  0.00000000E+00
  0.00000000E+00  0.00000000E+00  0.00000000E+00
  0.00000000E+00  0.00000000E+00  0.00000000E+00
  0.00000000E+00  0.00000000E+00  0.00000000E+00
  0.00000000E+00  0.00000000E+00  0.00000000E+00
  0.00000000E+00  0.00000000E+00  0.00000000E+00
  0.00000000E+00  0.00000000E+00  0.00000000E+00
  0.00000000E+00  0.00000000E+00  0.00000000E+00
  0.00000000E+00  0.00000000E+00  0.00000000E+00
  0.00000000E+00  0.00000000E+00  0.00000000E+00
  0.00000000E+00  0.00000000E+00  0.00000000E+00
  0.00000000E+00  0.00000000E+00  0.00000000E+00
  0.00000000E+00  0.00000000E+00  0.00000000E+00
