Graphene-Borophene Hollow 2 with lattice
   1.00000000000000     
     4.3145385616540723    2.4909999999999997    0.0000000000000000
    -4.3145385616540723    2.4909999999999997    0.0000000000000000
     0.0000000000000000    0.0000000000000000   15.0000000000000000
   B    C 
     8     8
Direct
  0.6696429828223111 -0.0000964057664673  0.1620371257717483
  0.3302596114112241 -0.0000964057664673  0.1620371257717483
  0.0000964057664673  0.3303560171776914  0.1620371257717483
  0.0000964057664673  0.6697393885887785  0.1620371257717483
  0.3302596114112241  0.3303560171776914  0.1620371257717483
  0.6696429828223111  0.6697393885887785  0.1620371257717483
  0.6666659999999993  0.3333330000000032  0.1607474017030047
  0.3333330000000032  0.6666659999999993  0.1752323290479228
  0.3402348286173644  0.1701174143086893  0.4075669509256268
  0.4986215004151536 -0.0027569991696926  0.4066043887539497
  0.3333326666666636  0.6666663333333389  0.4055567326924634
  0.4986215004151536  0.5013774995848487  0.4066043887539497
  0.8298815856913132  0.1701174143086893  0.4075669509256268
  0.9999996666666675  0.9999993333333350  0.4085267628873808
  0.8298815856913132  0.6597641713826381  0.4075669509256268
  0.0027559991696950  0.5013774995848487  0.4066043887539497
 
  0.00000000E+00  0.00000000E+00  0.00000000E+00
  0.00000000E+00  0.00000000E+00  0.00000000E+00
  0.00000000E+00  0.00000000E+00  0.00000000E+00
  0.00000000E+00  0.00000000E+00  0.00000000E+00
  0.00000000E+00  0.00000000E+00  0.00000000E+00
  0.00000000E+00  0.00000000E+00  0.00000000E+00
  0.00000000E+00  0.00000000E+00  0.00000000E+00
  0.00000000E+00  0.00000000E+00  0.00000000E+00
  0.00000000E+00  0.00000000E+00  0.00000000E+00
  0.00000000E+00  0.00000000E+00  0.00000000E+00
  0.00000000E+00  0.00000000E+00  0.00000000E+00
  0.00000000E+00  0.00000000E+00  0.00000000E+00
  0.00000000E+00  0.00000000E+00  0.00000000E+00
  0.00000000E+00  0.00000000E+00  0.00000000E+00
  0.00000000E+00  0.00000000E+00  0.00000000E+00
  0.00000000E+00  0.00000000E+00  0.00000000E+00
