Graphene-Borophene Hollow 2 with lattice
   1.00000000000000     
     4.3145385616540723    2.4909999999999997    0.0000000000000000
    -4.3145385616540723    2.4909999999999997    0.0000000000000000
     0.0000000000000000    0.0000000000000000   15.0000000000000000
   B    C 
     8     8
Direct
  0.6694953080925478 -0.0000531971549166  0.1669023960251948
  0.3304504947525382 -0.0000531971549166  0.1669023960251948
  0.0000531971549166  0.3305036919074548  0.1669023960251948
  0.0000531971549166  0.6695485052474646  0.1669023960251948
  0.3304504947525382  0.3305036919074548  0.1669023960251948
  0.6694953080925478  0.6695485052474646  0.1669023960251948
  0.6666659999999993  0.3333330000000032  0.1612804198242525
  0.3333330000000032  0.6666659999999993  0.1731335555646054
  0.3333522019201356  0.1666761009600749  0.4036035175456762
  0.5000210946560143  0.0000421893120279  0.4036817386635048
  0.3333326666666636  0.6666663333333389  0.4036291708758784
  0.5000210946560143  0.4999779053439889  0.4036817386635048
  0.8333228990399278  0.1666761009600749  0.4036035175456762
  0.9999996666666675  0.9999993333333350  0.4034867089565432
  0.8333228990399278  0.6666467980798669  0.4036035175456762
 -0.0000431893120255  0.4999779053439889  0.4036817386635048
 
  0.00000000E+00  0.00000000E+00  0.00000000E+00
  0.00000000E+00  0.00000000E+00  0.00000000E+00
  0.00000000E+00  0.00000000E+00  0.00000000E+00
  0.00000000E+00  0.00000000E+00  0.00000000E+00
  0.00000000E+00  0.00000000E+00  0.00000000E+00
  0.00000000E+00  0.00000000E+00  0.00000000E+00
  0.00000000E+00  0.00000000E+00  0.00000000E+00
  0.00000000E+00  0.00000000E+00  0.00000000E+00
  0.00000000E+00  0.00000000E+00  0.00000000E+00
  0.00000000E+00  0.00000000E+00  0.00000000E+00
  0.00000000E+00  0.00000000E+00  0.00000000E+00
  0.00000000E+00  0.00000000E+00  0.00000000E+00
  0.00000000E+00  0.00000000E+00  0.00000000E+00
  0.00000000E+00  0.00000000E+00  0.00000000E+00
  0.00000000E+00  0.00000000E+00  0.00000000E+00
  0.00000000E+00  0.00000000E+00  0.00000000E+00
