Graphene-B4C3 Hollow 2 with lattice para
   1.00000000000000     
     4.2114815386037252    2.4315000000000002    0.0000000000000000
    -4.2114815386037252    2.4315000000000002    0.0000000000000000
     0.0000000000000000    0.0000000000000000   15.0000000000000000
   B    C 
     4    11
Direct
  0.0044201649917146  0.0029378588581759  0.0997646640865901
  0.3595659894868359  0.0029421426917625  0.1008526882906034
  0.0044266530403275  0.3580836187362965  0.1008548066020865
  0.6492853923634079  0.6478014148138173  0.1008589684608090
  0.3279462719813962  0.3264561502801582  0.1006602463817035
  0.6809209948991374  0.0029542757673666  0.1006616774201746
  0.0044408074863369  0.6794377085186988  0.1006622118155278
  0.1664257746902726  0.3331779022794217  0.3383916199656148
  0.3331101666760906  0.1664932290886814  0.3383933479690249
  0.1664702518431439  0.8332056875013454  0.3383956504498330
  0.3331178332008847  0.6665238670421681  0.3382865063286007
  0.6664601390754041  0.3331845286165041  0.3382865106703400
  0.8331381874103675  0.1665350669877989  0.3383950100106862
  0.6664637983082912  0.8331718734551214  0.3383916025671025
  0.8331015745463971  0.6665286753626951  0.3383904889813303
 
  0.00000000E+00  0.00000000E+00  0.00000000E+00
  0.00000000E+00  0.00000000E+00  0.00000000E+00
  0.00000000E+00  0.00000000E+00  0.00000000E+00
  0.00000000E+00  0.00000000E+00  0.00000000E+00
  0.00000000E+00  0.00000000E+00  0.00000000E+00
  0.00000000E+00  0.00000000E+00  0.00000000E+00
  0.00000000E+00  0.00000000E+00  0.00000000E+00
  0.00000000E+00  0.00000000E+00  0.00000000E+00
  0.00000000E+00  0.00000000E+00  0.00000000E+00
  0.00000000E+00  0.00000000E+00  0.00000000E+00
  0.00000000E+00  0.00000000E+00  0.00000000E+00
  0.00000000E+00  0.00000000E+00  0.00000000E+00
  0.00000000E+00  0.00000000E+00  0.00000000E+00
  0.00000000E+00  0.00000000E+00  0.00000000E+00
  0.00000000E+00  0.00000000E+00  0.00000000E+00
