Graphene-B4C3 Bridge with lattice parame
   1.00000000000000     
     4.1855007764901915    2.4165000000000001    0.0000000000000000
    -4.1855007764901915    2.4165000000000001    0.0000000000000000
     0.0000000000000000    0.0000000000000000   15.0000000000000000
   B    C 
     4    11
Direct
  0.0274289297532074 -0.0194005962735975  0.1028828960625247
  0.3825903624798248 -0.0192766184224941  0.1015013576070452
  0.0272882074473949  0.3355507895572662  0.1016469884659527
  0.6725695893450829  0.6253796088527563  0.1016130927648905
  0.3513413840555717  0.3041758857409613  0.1016347658485465
  0.7038774583389898 -0.0192724228146629  0.1016971098530407
  0.0273779156095966  0.6567605529164233  0.1016790302189555
  0.0629584471251392  0.4360976493433022  0.3365437138554990
  0.2296052945177791  0.2694574128537136  0.3366948882066926
  0.0629615141948824  0.9361398612767968  0.3365680331449881
  0.2296541530613887  0.7694541024538185  0.3366060710961096
  0.5629257031037704  0.4361119244716777  0.3365751986982778
  0.7295996237498279  0.2694477432873534  0.3365022221582414
  0.5628912899872563  0.9360760292537222  0.3366230520033408
  0.7295574605636090  0.7693987441696589  0.3366109133492303
 
  0.00000000E+00  0.00000000E+00  0.00000000E+00
  0.00000000E+00  0.00000000E+00  0.00000000E+00
  0.00000000E+00  0.00000000E+00  0.00000000E+00
  0.00000000E+00  0.00000000E+00  0.00000000E+00
  0.00000000E+00  0.00000000E+00  0.00000000E+00
  0.00000000E+00  0.00000000E+00  0.00000000E+00
  0.00000000E+00  0.00000000E+00  0.00000000E+00
  0.00000000E+00  0.00000000E+00  0.00000000E+00
  0.00000000E+00  0.00000000E+00  0.00000000E+00
  0.00000000E+00  0.00000000E+00  0.00000000E+00
  0.00000000E+00  0.00000000E+00  0.00000000E+00
  0.00000000E+00  0.00000000E+00  0.00000000E+00
  0.00000000E+00  0.00000000E+00  0.00000000E+00
  0.00000000E+00  0.00000000E+00  0.00000000E+00
  0.00000000E+00  0.00000000E+00  0.00000000E+00
