Graphene-BC3 Top with lattice parameter 
   1.00000000000000     
     4.3604379080546485    2.5175000000000001    0.0000000000000000
    -4.3604379080546485    2.5175000000000001    0.0000000000000000
     0.0000000000000000    0.0000000000000000   15.0000000000000000
   B    C 
     2    14
Direct
  0.3383346101056743  0.6691678168156830  0.1002381105932755
  0.6716673892187806  0.3358339263607933  0.1002381020167201
  0.1646817672375645  0.3218574093824903  0.0999132612740518
  0.3243603442932793  0.1621798978665396  0.0999123143047791
  0.1646830267939400  0.8428249902647177  0.0999132608491907
  0.8453273760279850  0.1621790355659878  0.0999147373278144
  0.6856498085337634  0.8428240161416004  0.0999153061774935
  0.8453291120930351  0.6831472593632292  0.0999147306750623
  0.1665669453179993  0.3331405463147379  0.3288802670876738
  0.3331381783350684  0.1665688329653586  0.3288813792494681
  0.1665669548906052  0.8334260983275050  0.3288802665671911
  0.3333270077640243  0.6666632530435612  0.3285829651509110
  0.6666603256206565  0.3333300148169061  0.3285829639863924
  0.8334238070718744  0.1665693806949869  0.3288778732144710
  0.6668515493830737  0.8334256276387770  0.3288765890112915
  0.8334237973126954  0.6668538944371345  0.3288778725142338
 
  0.00000000E+00  0.00000000E+00  0.00000000E+00
  0.00000000E+00  0.00000000E+00  0.00000000E+00
  0.00000000E+00  0.00000000E+00  0.00000000E+00
  0.00000000E+00  0.00000000E+00  0.00000000E+00
  0.00000000E+00  0.00000000E+00  0.00000000E+00
  0.00000000E+00  0.00000000E+00  0.00000000E+00
  0.00000000E+00  0.00000000E+00  0.00000000E+00
  0.00000000E+00  0.00000000E+00  0.00000000E+00
  0.00000000E+00  0.00000000E+00  0.00000000E+00
  0.00000000E+00  0.00000000E+00  0.00000000E+00
  0.00000000E+00  0.00000000E+00  0.00000000E+00
  0.00000000E+00  0.00000000E+00  0.00000000E+00
  0.00000000E+00  0.00000000E+00  0.00000000E+00
  0.00000000E+00  0.00000000E+00  0.00000000E+00
  0.00000000E+00  0.00000000E+00  0.00000000E+00
  0.00000000E+00  0.00000000E+00  0.00000000E+00
