Graphene-Borophene Bridge with lattice p
   1.00000000000000     
     4.3171366378654268    2.4925000000000002    0.0000000000000000
    -4.3171366378654268    2.4925000000000002    0.0000000000000000
     0.0000000000000000    0.0000000000000000   15.0000000000000000
   B    C 
     8     8
Direct
  0.6744006030901579 -0.0059902579856842  0.1674336689341234
  0.3371508499850139 -0.0057657315370851  0.1657212867995018
  0.0059902579856841  0.3255983969098444  0.1674336689341234
  0.0057657315370851  0.6628481500149878  0.1657212867995018
  0.3371547555279070  0.3258303509313828  0.1655549461659451
  0.6741686490686204  0.6628442444720956  0.1655549461659451
  0.6722670700233236  0.3277319299766790  0.1549124431590631
  0.3385624881049460  0.6614365118950565  0.1795945886211560
  0.2443400607912071  0.2556840484177594  0.4026698255100288
  0.4110105600993399  0.0890615727523406  0.4025361356065696
  0.2442879588485264  0.7557110411514759  0.4022387531217070
  0.4109826928801378  0.5890163071198647  0.4024177022678616
  0.7443246478321595  0.2556743521678427  0.4027316871932486
  0.9110009620626883  0.0889980379373139  0.4028064329379985
  0.7443149515822431  0.7556589392087953  0.4026698255100288
  0.9109374272476616  0.5889884399006631  0.4025361356065696
 
  0.00000000E+00  0.00000000E+00  0.00000000E+00
  0.00000000E+00  0.00000000E+00  0.00000000E+00
  0.00000000E+00  0.00000000E+00  0.00000000E+00
  0.00000000E+00  0.00000000E+00  0.00000000E+00
  0.00000000E+00  0.00000000E+00  0.00000000E+00
  0.00000000E+00  0.00000000E+00  0.00000000E+00
  0.00000000E+00  0.00000000E+00  0.00000000E+00
  0.00000000E+00  0.00000000E+00  0.00000000E+00
  0.00000000E+00  0.00000000E+00  0.00000000E+00
  0.00000000E+00  0.00000000E+00  0.00000000E+00
  0.00000000E+00  0.00000000E+00  0.00000000E+00
  0.00000000E+00  0.00000000E+00  0.00000000E+00
  0.00000000E+00  0.00000000E+00  0.00000000E+00
  0.00000000E+00  0.00000000E+00  0.00000000E+00
  0.00000000E+00  0.00000000E+00  0.00000000E+00
  0.00000000E+00  0.00000000E+00  0.00000000E+00
