Graphene-B4C3 Hollow 1 with lattice para
   1.00000000000000     
     4.1880988527015450    2.4180000000000001    0.0000000000000000
    -4.1880988527015450    2.4180000000000001    0.0000000000000000
     0.0000000000000000    0.0000000000000000   15.0000000000000000
   B    C 
     4    11
Direct
  0.0277444466730089 -0.0185417934889353  0.0983798541150991
  0.3833463317289080 -0.0185410929865609  0.1014582354317257
  0.0280635175288648  0.3364913929117097  0.1018795918220271
  0.6732192144859560  0.6262477869560131  0.1017587567924033
  0.3520878146827918  0.3051131576721191  0.1008743036133930
  0.7044691986768021 -0.0184846655336462  0.1011232279386087
  0.0275486945156590  0.6575054339278497  0.1009385952476562
  0.0902449336456606  0.4076232861510762  0.3380831542889252
  0.2569039788889131  0.2408786444073309  0.3383482761209685
  0.0902976057987964  0.9076690861620957  0.3381553892635603
  0.2569613953381257  0.7409766499389198  0.3381471027434065
  0.5901796503453997  0.4076117518925211  0.3380620390381993
  0.7568585941431858  0.2409402978832683  0.3381377730773131
  0.5901259470384085  0.9075024767765705  0.3382165123832867
  0.7567982320650714  0.7408860317741347  0.3382165214567481
 
  0.00000000E+00  0.00000000E+00  0.00000000E+00
  0.00000000E+00  0.00000000E+00  0.00000000E+00
  0.00000000E+00  0.00000000E+00  0.00000000E+00
  0.00000000E+00  0.00000000E+00  0.00000000E+00
  0.00000000E+00  0.00000000E+00  0.00000000E+00
  0.00000000E+00  0.00000000E+00  0.00000000E+00
  0.00000000E+00  0.00000000E+00  0.00000000E+00
  0.00000000E+00  0.00000000E+00  0.00000000E+00
  0.00000000E+00  0.00000000E+00  0.00000000E+00
  0.00000000E+00  0.00000000E+00  0.00000000E+00
  0.00000000E+00  0.00000000E+00  0.00000000E+00
  0.00000000E+00  0.00000000E+00  0.00000000E+00
  0.00000000E+00  0.00000000E+00  0.00000000E+00
  0.00000000E+00  0.00000000E+00  0.00000000E+00
  0.00000000E+00  0.00000000E+00  0.00000000E+00
