Graphene-B4C3 Bridge with lattice parame
   1.00000000000000     
     4.1976251321431741    2.4235000000000002    0.0000000000000000
    -4.1976251321431741    2.4235000000000002    0.0000000000000000
     0.0000000000000000    0.0000000000000000   15.0000000000000000
   B    C 
     4    11
Direct
  0.0093017431526194 -0.0020919578501092  0.1007129831904347
  0.3643571890856971 -0.0023968230645890  0.1010782077324680
  0.0093610168930823  0.3528108204030335  0.1012062375518368
  0.6547192590387085  0.6425667801561851  0.1011779158403962
  0.3334391100197135  0.3210864563172805  0.1009662228665199
  0.6860298241577099 -0.0020051658787419  0.1011677927737430
  0.0095544908038614  0.6741400250523161  0.1010293856275038
  0.0785579159894392  0.4210183243915706  0.3372197203872927
  0.2453319950366722  0.2545135859945953  0.3373412524843957
  0.0786982143967851  0.9210925971941589  0.3372804319784167
  0.2454178491766841  0.7544165588886351  0.3372165531829884
  0.5787174543497828  0.4210065942020327  0.3372415082686260
  0.7453151329677847  0.2544321072622202  0.3371743988149272
  0.5786548466496836  0.9211247830683418  0.3373271627941460
  0.7451712916150977  0.7543859805297675  0.3372395598396412
 
  0.00000000E+00  0.00000000E+00  0.00000000E+00
  0.00000000E+00  0.00000000E+00  0.00000000E+00
  0.00000000E+00  0.00000000E+00  0.00000000E+00
  0.00000000E+00  0.00000000E+00  0.00000000E+00
  0.00000000E+00  0.00000000E+00  0.00000000E+00
  0.00000000E+00  0.00000000E+00  0.00000000E+00
  0.00000000E+00  0.00000000E+00  0.00000000E+00
  0.00000000E+00  0.00000000E+00  0.00000000E+00
  0.00000000E+00  0.00000000E+00  0.00000000E+00
  0.00000000E+00  0.00000000E+00  0.00000000E+00
  0.00000000E+00  0.00000000E+00  0.00000000E+00
  0.00000000E+00  0.00000000E+00  0.00000000E+00
  0.00000000E+00  0.00000000E+00  0.00000000E+00
  0.00000000E+00  0.00000000E+00  0.00000000E+00
  0.00000000E+00  0.00000000E+00  0.00000000E+00
