Graphene-Borophene Hollow_2 with lattice
   1.00000000000000     
     4.3119404854427197    2.4895000000000000    0.0000000000000000
    -4.3119404854427197    2.4895000000000000    0.0000000000000000
     0.0000000000000000    0.0000000000000000   15.0000000000000000
   B    C 
     8     8
Direct
  0.6695253947495630  0.9999484485253447  0.0998559452963192
  0.3304220537757843  0.9999484485253447  0.0998559452963192
  0.0000515514746553  0.3304736052504396  0.0998559452963192
  0.0000515514746553  0.6695769462242183  0.0998559452963192
  0.3304220537757843  0.3304736052504396  0.0998559452963192
  0.6695253947495630  0.6695769462242183  0.0998559452963192
  0.6666659999999993  0.3333330000000032  0.0941177180019253
  0.3333330000000032  0.6666659999999993  0.1062017302059033
  0.3333531644097008  0.1666765822048575  0.3364521156610749
  0.5000215947637372  0.0000431895274673  0.3365300279591423
  0.3333326666666636  0.6666663333333389  0.3364678353146573
  0.5000215947637372  0.4999774052362653  0.3365300279591423
  0.8333224177951450  0.1666765822048575  0.3364521156610749
  0.9999996666666675  0.9999993333333350  0.3363306138389319
  0.8333224177951450  0.6666458355903018  0.3364521156610749
  0.9999558104725352  0.4999774052362653  0.3365300279591423
 
  0.00000000E+00  0.00000000E+00  0.00000000E+00
  0.00000000E+00  0.00000000E+00  0.00000000E+00
  0.00000000E+00  0.00000000E+00  0.00000000E+00
  0.00000000E+00  0.00000000E+00  0.00000000E+00
  0.00000000E+00  0.00000000E+00  0.00000000E+00
  0.00000000E+00  0.00000000E+00  0.00000000E+00
  0.00000000E+00  0.00000000E+00  0.00000000E+00
  0.00000000E+00  0.00000000E+00  0.00000000E+00
  0.00000000E+00  0.00000000E+00  0.00000000E+00
  0.00000000E+00  0.00000000E+00  0.00000000E+00
  0.00000000E+00  0.00000000E+00  0.00000000E+00
  0.00000000E+00  0.00000000E+00  0.00000000E+00
  0.00000000E+00  0.00000000E+00  0.00000000E+00
  0.00000000E+00  0.00000000E+00  0.00000000E+00
  0.00000000E+00  0.00000000E+00  0.00000000E+00
  0.00000000E+00  0.00000000E+00  0.00000000E+00
