Graphene-B4C3 Bridge with lattice parame
   1.00000000000000     
     4.2019552591620952    2.4259999999999993    0.0000000000000000
    -4.2019552591620952    2.4259999999999993    0.0000000000000000
     0.0000000000000000    0.0000000000000000   15.0000000000000000
   B    C 
     4    11
Direct
  0.0433095165543452 -0.0344018590356028  0.1044119988488326
  0.3984496322181851 -0.0342054577274161  0.1001414369227408
  0.0430996357464735  0.3204986963892509  0.1002470990158412
  0.6883747947104483  0.6104502343174476  0.1002345204431070
  0.3669263439252107  0.2888606207698217  0.1005750168330686
  0.7200290123657658 -0.0341248390272827  0.1007293840198598
  0.0430540384397665  0.6419937836969601  0.1006126984923065
  0.0491585970863481  0.4492160702520498  0.3372655265440094
  0.2157892424512057  0.2826477751024298  0.3373560911960237
  0.0491035125693722  0.9492056619255270  0.3373486003249486
  0.2157986638793305  0.7825286978786747  0.3373549669621103
  0.5490657935498940  0.4492064327832428  0.3373523384692172
  0.7157422747026818  0.2825727797617672  0.3371555166615882
  0.5490410916260106  0.9491613303035059  0.3372329478388755
  0.7156851835082829  0.7824907392763210  0.3373611907608055
 
  0.00000000E+00  0.00000000E+00  0.00000000E+00
  0.00000000E+00  0.00000000E+00  0.00000000E+00
  0.00000000E+00  0.00000000E+00  0.00000000E+00
  0.00000000E+00  0.00000000E+00  0.00000000E+00
  0.00000000E+00  0.00000000E+00  0.00000000E+00
  0.00000000E+00  0.00000000E+00  0.00000000E+00
  0.00000000E+00  0.00000000E+00  0.00000000E+00
  0.00000000E+00  0.00000000E+00  0.00000000E+00
  0.00000000E+00  0.00000000E+00  0.00000000E+00
  0.00000000E+00  0.00000000E+00  0.00000000E+00
  0.00000000E+00  0.00000000E+00  0.00000000E+00
  0.00000000E+00  0.00000000E+00  0.00000000E+00
  0.00000000E+00  0.00000000E+00  0.00000000E+00
  0.00000000E+00  0.00000000E+00  0.00000000E+00
  0.00000000E+00  0.00000000E+00  0.00000000E+00
