Graphene-B4C3 Bridge with lattice parame
   1.00000000000000     
     4.2158116656226472    2.4340000000000002    0.0000000000000000
    -4.2158116656226472    2.4340000000000002    0.0000000000000000
     0.0000000000000000    0.0000000000000000   15.0000000000000000
   B    C 
     4    11
Direct
  0.0178782836901415 -0.0104647983206870  0.1022842389937518
  0.3731173725036100 -0.0101529744669068  0.1025313267504856
  0.0178051085605044  0.3446384883611352  0.1025192435712246
  0.6630360614920882  0.6343248650374852  0.1025325976103723
  0.3414366162713910  0.3129407761081901  0.1022861808951073
  0.6945558338798473 -0.0104027124388551  0.1024649673185541
  0.0177530422517370  0.6661425135941508  0.1023786615871069
  0.0712905547315409  0.4282147179946086  0.3360140155061261
  0.2379883685536227  0.2616231647493081  0.3361352897177238
  0.0713547559726240  0.9282443256770246  0.3360332482419469
  0.2380990473521674  0.7615624560664339  0.3360280003074287
  0.5713072037515576  0.4281935045981781  0.3360181881752950
  0.7379425720824420  0.2615271552197775  0.3359827896419948
  0.5712366048996841  0.9282025241571238  0.3361370985832733
  0.7378259073403635  0.7615066603297309  0.3360334864329452
 
  0.00000000E+00  0.00000000E+00  0.00000000E+00
  0.00000000E+00  0.00000000E+00  0.00000000E+00
  0.00000000E+00  0.00000000E+00  0.00000000E+00
  0.00000000E+00  0.00000000E+00  0.00000000E+00
  0.00000000E+00  0.00000000E+00  0.00000000E+00
  0.00000000E+00  0.00000000E+00  0.00000000E+00
  0.00000000E+00  0.00000000E+00  0.00000000E+00
  0.00000000E+00  0.00000000E+00  0.00000000E+00
  0.00000000E+00  0.00000000E+00  0.00000000E+00
  0.00000000E+00  0.00000000E+00  0.00000000E+00
  0.00000000E+00  0.00000000E+00  0.00000000E+00
  0.00000000E+00  0.00000000E+00  0.00000000E+00
  0.00000000E+00  0.00000000E+00  0.00000000E+00
  0.00000000E+00  0.00000000E+00  0.00000000E+00
  0.00000000E+00  0.00000000E+00  0.00000000E+00
