Graphene-B4C3 Bridge with lattice parame
   1.00000000000000     
     4.1950270559318197    2.4219999999999997    0.0000000000000000
    -4.1950270559318197    2.4219999999999997    0.0000000000000000
     0.0000000000000000    0.0000000000000000   15.0000000000000000
   B    C 
     4    11
Direct
  0.0041482905420165  0.0026971734484731  0.1187003727936910
  0.3568166341085775  0.0028083564566104  0.0979463300683664
  0.0041575615342180  0.3554375026822990  0.0980354389933515
  0.6516206625710156  0.6500141375087528  0.0979988065609825
  0.3266411508641338  0.3249900575187038  0.1002669954584125
  0.6820422734259042  0.0028537873577364  0.1003154353551049
  0.0041816301799261  0.6803549040966920  0.1002503024363203
  0.0832858353851380  0.4166575309399980  0.3364677791836851
  0.2498885229296323  0.2499864038155661  0.3365859499825629
  0.0832168569374334  0.9166432654658488  0.3364571311233639
  0.2498367501399213  0.7500622377943607  0.3364274094961943
  0.5833168272626105  0.4166791908850059  0.3364158637994026
  0.7499684537173019  0.2500293057066239  0.3364588061533467
  0.5833995132617421  0.9167519325916557  0.3365615406871915
  0.7501063704737506  0.7501348803983701  0.3364911712413597
 
  0.00000000E+00  0.00000000E+00  0.00000000E+00
  0.00000000E+00  0.00000000E+00  0.00000000E+00
  0.00000000E+00  0.00000000E+00  0.00000000E+00
  0.00000000E+00  0.00000000E+00  0.00000000E+00
  0.00000000E+00  0.00000000E+00  0.00000000E+00
  0.00000000E+00  0.00000000E+00  0.00000000E+00
  0.00000000E+00  0.00000000E+00  0.00000000E+00
  0.00000000E+00  0.00000000E+00  0.00000000E+00
  0.00000000E+00  0.00000000E+00  0.00000000E+00
  0.00000000E+00  0.00000000E+00  0.00000000E+00
  0.00000000E+00  0.00000000E+00  0.00000000E+00
  0.00000000E+00  0.00000000E+00  0.00000000E+00
  0.00000000E+00  0.00000000E+00  0.00000000E+00
  0.00000000E+00  0.00000000E+00  0.00000000E+00
  0.00000000E+00  0.00000000E+00  0.00000000E+00
