Graphene-B4C3 Bridge with lattice parame
   1.00000000000000     
     4.1950270559318197    2.4219999999999997    0.0000000000000000
    -4.1950270559318197    2.4219999999999997    0.0000000000000000
     0.0000000000000000    0.0000000000000000   15.0000000000000000
   B    C 
     4    11
Direct
  0.0045430280213538  0.0024604101895722  0.1047645005278841
  0.3594523448508707  0.0023442013381678  0.1007716237477117
  0.0046754926105708  0.3573504652742124  0.1011437664961490
  0.6499100288047851  0.6473190232725037  0.1010366441655762
  0.3283946769324414  0.3259438852564313  0.1013417488976397
  0.6810085642796671  0.0022793248129385  0.1017175754925907
  0.0046546165784327  0.6786759039487648  0.1014350309316504
  0.0829657744513000  0.4170541186301588  0.3365926192222828
  0.2495784479968874  0.2503293709346253  0.3367666527471809
  0.0830016041714948  0.9171488565633331  0.3366785982833961
  0.2496612854585614  0.7504403704957764  0.3365896782373805
  0.5828777659916483  0.4170739459976843  0.3365986236906257
  0.7495822627727556  0.2504268198579707  0.3365741482660080
  0.5828164409006360  0.9169212951201130  0.3367204308455956
  0.7495049995119165  0.7503326749744439  0.3366476917816644
 
  0.00000000E+00  0.00000000E+00  0.00000000E+00
  0.00000000E+00  0.00000000E+00  0.00000000E+00
  0.00000000E+00  0.00000000E+00  0.00000000E+00
  0.00000000E+00  0.00000000E+00  0.00000000E+00
  0.00000000E+00  0.00000000E+00  0.00000000E+00
  0.00000000E+00  0.00000000E+00  0.00000000E+00
  0.00000000E+00  0.00000000E+00  0.00000000E+00
  0.00000000E+00  0.00000000E+00  0.00000000E+00
  0.00000000E+00  0.00000000E+00  0.00000000E+00
  0.00000000E+00  0.00000000E+00  0.00000000E+00
  0.00000000E+00  0.00000000E+00  0.00000000E+00
  0.00000000E+00  0.00000000E+00  0.00000000E+00
  0.00000000E+00  0.00000000E+00  0.00000000E+00
  0.00000000E+00  0.00000000E+00  0.00000000E+00
  0.00000000E+00  0.00000000E+00  0.00000000E+00
