Graphene-BC3 Hollow with lattice paramet
   1.00000000000000     
     4.3682321366887082    2.5219999999999998    0.0000000000000000
    -4.3682321366887082    2.5219999999999998    0.0000000000000000
     0.0000000000000000    0.0000000000000000   15.0000000000000000
   B    C 
     2    14
Direct
  0.3382260748307868  0.6691100517509394  0.1135130899059824
  0.6715610782047980  0.3357776294923971  0.1131825916438999
  0.1645057163293970  0.3216677156944627  0.1131626590540586
  0.3240426039745348  0.1620171333416117  0.1131727771763020
  0.1645050939253851  0.8428292379681254  0.1131645898582350
  0.8453184684930425  0.1620154068167510  0.1131646270389206
  0.6856621520819590  0.8428273205076828  0.1131572814665784
  0.8453188263226835  0.6832940598809637  0.1131666175264062
  0.3334590428568355  0.1667332777627695  0.3380449073491987
  0.5001495136551414  0.0001462958402243  0.3380164110125365
  0.3334369734783559  0.6667222921619204  0.3377192947776703
  0.5001495490981908  0.5000093566895737  0.3380164131814233
  0.8334310286479905  0.1667345386242772  0.3380400022028615
  0.0001089412590276  0.0000576382327922  0.3380217273410040
  0.8334310238580707  0.6667040011575054  0.3380400345209909
  0.0000192463171345  0.5000127107446974  0.3380169759439318
 
  0.00000000E+00  0.00000000E+00  0.00000000E+00
  0.00000000E+00  0.00000000E+00  0.00000000E+00
  0.00000000E+00  0.00000000E+00  0.00000000E+00
  0.00000000E+00  0.00000000E+00  0.00000000E+00
  0.00000000E+00  0.00000000E+00  0.00000000E+00
  0.00000000E+00  0.00000000E+00  0.00000000E+00
  0.00000000E+00  0.00000000E+00  0.00000000E+00
  0.00000000E+00  0.00000000E+00  0.00000000E+00
  0.00000000E+00  0.00000000E+00  0.00000000E+00
  0.00000000E+00  0.00000000E+00  0.00000000E+00
  0.00000000E+00  0.00000000E+00  0.00000000E+00
  0.00000000E+00  0.00000000E+00  0.00000000E+00
  0.00000000E+00  0.00000000E+00  0.00000000E+00
  0.00000000E+00  0.00000000E+00  0.00000000E+00
  0.00000000E+00  0.00000000E+00  0.00000000E+00
  0.00000000E+00  0.00000000E+00  0.00000000E+00
