k-points 37
0
Gamma
37    37    1
0    0    0