BC3
    1.0
    4.36476803616   2.52   0.00000
    -4.36476803616  2.52   0.00000
    0.000000   0.00000   15.00000
    B  C
    2  6
    Direct
    0.333333    0.666666    0.250000 
    0.666666    0.333333    0.250000 
    0.166666    0.333333    0.250000 
    0.333333    0.166666    0.250000 
    0.166666    0.833333    0.250000 
    0.833333    0.166666    0.250000 
    0.666666    0.833333    0.250000 
    0.833333    0.666666    0.250000 