Graphene-Borophene Hollow 1 with lattice
   1.00000000000000     
     4.3387872729600367    2.5049999999999999    0.0000000000000000
    -4.3387872729600367    2.5049999999999999    0.0000000000000000
     0.0000000000000000    0.0000000000000000   15.0000000000000000
   B    C 
     8     8
Direct
  0.6708556723597088 -0.0016652228073616  0.1663309315564219
  0.3323330504646465 -0.0016410311009476  0.1665387249337851
  0.0016652228073616  0.3291433276402939  0.1663309315564219
  0.0016410311009476  0.6676659495353556  0.1665387249337851
  0.3322348650782823  0.3290390082024606  0.1665715816296088
  0.6709599917975416  0.6677641349217213  0.1665715816296088
  0.6681389914246836  0.3318600085753187  0.1658225353525648
  0.3348532771857933  0.6651457228142094  0.1673543402570134
  0.2762022229125097  0.2238114787891406  0.4030801185215872
  0.4428588974159510  0.0571589038528300  0.4031228883968714
  0.2761894203292800  0.7238095796707222  0.4030675503151794
  0.4428752387707986  0.5571237612292042  0.4031305689758621
  0.7761929508426907  0.2238060491573120  0.4031239897787105
  0.9428534390407024  0.0571455609593000  0.4030125252441304
  0.7761875212108615  0.7237967770874928  0.4030801185215872
  0.9428400961471722  0.5571401025840513  0.4031228883968714
 
  0.00000000E+00  0.00000000E+00  0.00000000E+00
  0.00000000E+00  0.00000000E+00  0.00000000E+00
  0.00000000E+00  0.00000000E+00  0.00000000E+00
  0.00000000E+00  0.00000000E+00  0.00000000E+00
  0.00000000E+00  0.00000000E+00  0.00000000E+00
  0.00000000E+00  0.00000000E+00  0.00000000E+00
  0.00000000E+00  0.00000000E+00  0.00000000E+00
  0.00000000E+00  0.00000000E+00  0.00000000E+00
  0.00000000E+00  0.00000000E+00  0.00000000E+00
  0.00000000E+00  0.00000000E+00  0.00000000E+00
  0.00000000E+00  0.00000000E+00  0.00000000E+00
  0.00000000E+00  0.00000000E+00  0.00000000E+00
  0.00000000E+00  0.00000000E+00  0.00000000E+00
  0.00000000E+00  0.00000000E+00  0.00000000E+00
  0.00000000E+00  0.00000000E+00  0.00000000E+00
  0.00000000E+00  0.00000000E+00  0.00000000E+00
