Graphene-Borophene Hollow 1 with lattice parameter 5.010 and distance 5.544
        1.0
        4.3387872729600367    2.5049999999999999    0.0000000000000000
       -4.3387872729600367    2.5049999999999999    0.0000000000000000
        0.0000000000000000    0.0000000000000000   15.0000000000000000
        B   C
        8   8
        Direct
        0.6688868879072842  0.0000000000000000  0.1000000000000014
        0.3311121120927183  0.0000000000000000  0.1000000000000014
        0.0000000000000000  0.3311121120927183  0.1000000000000014
        0.0000000000000000  0.6688868879072842  0.1000000000000014
        0.3311121120927183  0.3311121120927183  0.1000000000000014
        0.6688868879072842  0.6688868879072842  0.1000000000000014
        0.6666659999999993  0.3333330000000032  0.0992218869917920
        0.3333330000000032  0.6666659999999993  0.1007781130082108
        0.2777771111111104  0.2222218888888921  0.4696000000000000
        0.4444441111111143  0.0555548888888882  0.4696000000000000
        0.2777771111111104  0.7222218888888920  0.4696000000000000
        0.4444441111111143  0.5555548888888882  0.4696000000000000
        0.7777771111111105  0.2222218888888921  0.4696000000000000
        0.9444441111111144  0.0555548888888882  0.4696000000000000
        0.7777771111111105  0.7222218888888920  0.4696000000000000
        0.9444441111111144  0.5555548888888882  0.4696000000000000