Graphene-B4C3 Hollow 1 with lattice para
   1.00000000000000     
     4.2140796148150779    2.4329999999999998    0.0000000000000000
    -4.2140796148150779    2.4329999999999998    0.0000000000000000
     0.0000000000000000    0.0000000000000000   15.0000000000000000
   B    C 
     4    11
Direct
  0.0261789795357094 -0.0171100494943992  0.1049447014350758
  0.3813026599246911 -0.0167198478579597  0.0996443799511890
  0.0258173242407039  0.3378919088299164  0.1000749827422115
  0.6711853191601674  0.6282763521371006  0.0999558892379732
  0.3496183252662048  0.3064542986256955  0.1003584213978797
  0.7030887038700534 -0.0166314668737306  0.1006810945956313
  0.0263211132325350  0.6598011641383270  0.1004118997050215
  0.0916934726938296  0.4060183470637105  0.3381499932299797
  0.2584559501361143  0.2394540153704854  0.3383256066856278
  0.0918143677427651  0.9060590773674108  0.3383340354146875
  0.2585742903094447  0.7393701196923549  0.3381844772777088
  0.5919514108342105  0.4060544030165708  0.3382301287321108
  0.7585546367174807  0.2394007446746659  0.3380399014484761
  0.5918826336856585  0.9061431470071718  0.3382091590365846
  0.7584103682059816  0.7394162307471474  0.3382346624431638
 
  0.00000000E+00  0.00000000E+00  0.00000000E+00
  0.00000000E+00  0.00000000E+00  0.00000000E+00
  0.00000000E+00  0.00000000E+00  0.00000000E+00
  0.00000000E+00  0.00000000E+00  0.00000000E+00
  0.00000000E+00  0.00000000E+00  0.00000000E+00
  0.00000000E+00  0.00000000E+00  0.00000000E+00
  0.00000000E+00  0.00000000E+00  0.00000000E+00
  0.00000000E+00  0.00000000E+00  0.00000000E+00
  0.00000000E+00  0.00000000E+00  0.00000000E+00
  0.00000000E+00  0.00000000E+00  0.00000000E+00
  0.00000000E+00  0.00000000E+00  0.00000000E+00
  0.00000000E+00  0.00000000E+00  0.00000000E+00
  0.00000000E+00  0.00000000E+00  0.00000000E+00
  0.00000000E+00  0.00000000E+00  0.00000000E+00
  0.00000000E+00  0.00000000E+00  0.00000000E+00
