Graphene-BC3 Top with lattice parameter 
   1.00000000000000     
     4.3621699588622169    2.5185000000000000    0.0000000000000000
    -4.3621699588622169    2.5185000000000000    0.0000000000000000
     0.0000000000000000    0.0000000000000000   15.0000000000000000
   B    C 
     2    14
Direct
  0.3383346418888500  0.6691678155924353  0.1002375799091388
  0.6716673981730360  0.3358339249544474  0.1002375709799365
  0.1646692092591422  0.3218322165440455  0.0999125502553115
  0.3243351927492394  0.1621673324183852  0.0999116076286321
  0.1646704656735309  0.8428376243154835  0.0999125495854673
  0.8453400243232396  0.1621664579120315  0.0999140149476531
  0.6856750671253682  0.8428366517347319  0.0999145799447700
  0.8453417420194629  0.6831724850719381  0.0999140085327549
  0.1665665208345402  0.3331397495538633  0.3288809465121316
  0.3331373612561023  0.1665684244573349  0.3288820593050731
  0.1665665304500755  0.8334264685729121  0.3288809458981776
  0.3333269684782747  0.6666632337179573  0.3285836112304719
  0.6666602877596739  0.3333299954780408  0.3285836103963188
  0.8334241586890156  0.1665689765013006  0.3288785503608919
  0.6668522825098113  0.8334259932950639  0.3288772649539485
  0.8334241488106566  0.6668546498800376  0.3288785495593428
 
  0.00000000E+00  0.00000000E+00  0.00000000E+00
  0.00000000E+00  0.00000000E+00  0.00000000E+00
  0.00000000E+00  0.00000000E+00  0.00000000E+00
  0.00000000E+00  0.00000000E+00  0.00000000E+00
  0.00000000E+00  0.00000000E+00  0.00000000E+00
  0.00000000E+00  0.00000000E+00  0.00000000E+00
  0.00000000E+00  0.00000000E+00  0.00000000E+00
  0.00000000E+00  0.00000000E+00  0.00000000E+00
  0.00000000E+00  0.00000000E+00  0.00000000E+00
  0.00000000E+00  0.00000000E+00  0.00000000E+00
  0.00000000E+00  0.00000000E+00  0.00000000E+00
  0.00000000E+00  0.00000000E+00  0.00000000E+00
  0.00000000E+00  0.00000000E+00  0.00000000E+00
  0.00000000E+00  0.00000000E+00  0.00000000E+00
  0.00000000E+00  0.00000000E+00  0.00000000E+00
  0.00000000E+00  0.00000000E+00  0.00000000E+00
