Graphene-Borophene Bridge with lattice p
   1.00000000000000     
     4.3171366378654268    2.4925000000000002    0.0000000000000000
    -4.3171366378654268    2.4925000000000002    0.0000000000000000
     0.0000000000000000    0.0000000000000000   15.0000000000000000
   B    C 
     8     8
Direct
  0.6747504063988704 -0.0060718065882261  0.1680706865146091
  0.3376102442146232 -0.0059240077127574  0.1676211301638515
  0.0060718065882261  0.3252485936011323  0.1680706865146091
  0.0059240077127574  0.6623887557853794  0.1676211301638515
  0.3374638772980509  0.3251817330135250  0.1671290410748024
  0.6748172669864774  0.6625351227019514  0.1671290410748024
  0.6724835582704062  0.3275154417295965  0.1549423960675122
  0.3391495527704571  0.6608494472295453  0.1796246459693694
  0.2440223569187394  0.2561091416258882  0.4015508896614321
  0.4107062178218513  0.0894281440109969  0.4015627842944104
  0.2438779065550031  0.7561210934449993  0.4015910349017881
  0.4106272547396800  0.5893717452603223  0.4016180085660117
  0.7440096577923458  0.2559893422076568  0.4014761241772416
  0.9106848382360949  0.0893141617639073  0.4014120602332376
  0.7438898583741141  0.7559766430812630  0.4015508896614321
  0.9105708559890056  0.5892927821781515  0.4015627842944104
 
  0.00000000E+00  0.00000000E+00  0.00000000E+00
  0.00000000E+00  0.00000000E+00  0.00000000E+00
  0.00000000E+00  0.00000000E+00  0.00000000E+00
  0.00000000E+00  0.00000000E+00  0.00000000E+00
  0.00000000E+00  0.00000000E+00  0.00000000E+00
  0.00000000E+00  0.00000000E+00  0.00000000E+00
  0.00000000E+00  0.00000000E+00  0.00000000E+00
  0.00000000E+00  0.00000000E+00  0.00000000E+00
  0.00000000E+00  0.00000000E+00  0.00000000E+00
  0.00000000E+00  0.00000000E+00  0.00000000E+00
  0.00000000E+00  0.00000000E+00  0.00000000E+00
  0.00000000E+00  0.00000000E+00  0.00000000E+00
  0.00000000E+00  0.00000000E+00  0.00000000E+00
  0.00000000E+00  0.00000000E+00  0.00000000E+00
  0.00000000E+00  0.00000000E+00  0.00000000E+00
  0.00000000E+00  0.00000000E+00  0.00000000E+00
