Graphene-B4C3 Top with lattice parameter
   1.00000000000000     
     4.1898309035091144    2.4190000000000000    0.0000000000000000
    -4.1898309035091144    2.4190000000000000    0.0000000000000000
     0.0000000000000000    0.0000000000000000   15.0000000000000000
   B    C 
     4    11
Direct
  0.0041399626804560  0.0027105913029769  0.1061161665423625
  0.3591930904993231  0.0030942743222707  0.1006614650933109
  0.0038536514512305  0.3574608403769925  0.1006635326130833
  0.6494236374986269  0.6477479428615911  0.1006560794641868
  0.3279329775604498  0.3261631144259669  0.1011687140475406
  0.6807602871964491  0.0031607547124157  0.1011681968455435
  0.0037838636065023  0.6789688045648197  0.1011644602282976
  0.0000474822976594  0.5000282964992547  0.3340001761857659
  0.1667083514685740  0.3334119048362192  0.3340157003840833
  0.0000450488099418  0.0000188659244733  0.3339807267568538
  0.1667018155521233  0.8333097255234614  0.3340199738216030
  0.5000378027364695  0.5000128240332766  0.3340025952985826
  0.6666728122958574  0.3333476910925454  0.3338795764778600
  0.5000524501261309  0.0000166614543094  0.3339991473367431
  0.6666074328868991  0.8333150414027526  0.3340161555708656
 
  0.00000000E+00  0.00000000E+00  0.00000000E+00
  0.00000000E+00  0.00000000E+00  0.00000000E+00
  0.00000000E+00  0.00000000E+00  0.00000000E+00
  0.00000000E+00  0.00000000E+00  0.00000000E+00
  0.00000000E+00  0.00000000E+00  0.00000000E+00
  0.00000000E+00  0.00000000E+00  0.00000000E+00
  0.00000000E+00  0.00000000E+00  0.00000000E+00
  0.00000000E+00  0.00000000E+00  0.00000000E+00
  0.00000000E+00  0.00000000E+00  0.00000000E+00
  0.00000000E+00  0.00000000E+00  0.00000000E+00
  0.00000000E+00  0.00000000E+00  0.00000000E+00
  0.00000000E+00  0.00000000E+00  0.00000000E+00
  0.00000000E+00  0.00000000E+00  0.00000000E+00
  0.00000000E+00  0.00000000E+00  0.00000000E+00
  0.00000000E+00  0.00000000E+00  0.00000000E+00
