Graphene-BC3 Top with lattice parameter 
   1.00000000000000     
     4.2954860027708150    2.4800000000000000    0.0000000000000000
    -4.2954860027708150    2.4800000000000000    0.0000000000000000
     0.0000000000000000    0.0000000000000000   15.0000000000000000
   B    C 
     2    14
Direct
  0.3400333957459531  0.6698096092455017  0.0998636809170527
  0.6736177360755956  0.3366573131875453  0.0996615241099879
  0.1668622038909036  0.3237433304677057  0.0948290815069399
  0.3269795458867916  0.1635133779630525  0.0895417314597172
  0.1670016610028563  0.8433420150834897  0.0947413428762621
  0.8468071682475327  0.1636454493048750  0.1054960696038518
  0.6867077504168853  0.8433555792614352  0.1105735962855397
  0.8466259023681514  0.6830473479964413  0.1054189802358476
  0.1647759426146631  0.3323593364699138  0.3286594912581859
  0.3314237545983774  0.1657361415778676  0.3285472162587184
  0.1647725927401449  0.8324686786473567  0.3286589589602926
  0.3315161885723314  0.6657835213509774  0.3288396046608915
  0.6648487950141603  0.3324460615179455  0.3288275988175839
  0.8315370449991938  0.1657074840991966  0.3288775312226515
  0.6649436974846209  0.8324957107039566  0.3289888745274733
  0.8315386203418580  0.6658810431227474  0.3288747172990232
 
  0.00000000E+00  0.00000000E+00  0.00000000E+00
  0.00000000E+00  0.00000000E+00  0.00000000E+00
  0.00000000E+00  0.00000000E+00  0.00000000E+00
  0.00000000E+00  0.00000000E+00  0.00000000E+00
  0.00000000E+00  0.00000000E+00  0.00000000E+00
  0.00000000E+00  0.00000000E+00  0.00000000E+00
  0.00000000E+00  0.00000000E+00  0.00000000E+00
  0.00000000E+00  0.00000000E+00  0.00000000E+00
  0.00000000E+00  0.00000000E+00  0.00000000E+00
  0.00000000E+00  0.00000000E+00  0.00000000E+00
  0.00000000E+00  0.00000000E+00  0.00000000E+00
  0.00000000E+00  0.00000000E+00  0.00000000E+00
  0.00000000E+00  0.00000000E+00  0.00000000E+00
  0.00000000E+00  0.00000000E+00  0.00000000E+00
  0.00000000E+00  0.00000000E+00  0.00000000E+00
  0.00000000E+00  0.00000000E+00  0.00000000E+00
