Graphene-Borophene Hollow 2 with lattice
   1.00000000000000     
     4.3093424092313661    2.4880000000000000    0.0000000000000000
    -4.3093424092313661    2.4880000000000000    0.0000000000000000
     0.0000000000000000    0.0000000000000000   15.0000000000000000
   B    C 
     8     8
Direct
  0.6693119173371871 -0.0001205524343402  0.1670577692024544
  0.3305665302284753 -0.0001205524343402  0.1670577692024544
  0.0001205524343402  0.3306870826628155  0.1670577692024544
  0.0001205524343402  0.6694324697715270  0.1670577692024544
  0.3305665302284753  0.3306870826628155  0.1670577692024544
  0.6693119173371872  0.6694324697715270  0.1670577692024544
  0.6666659999999993  0.3333330000000032  0.1591398906356716
  0.3333330000000032  0.6666659999999993  0.1762526730557704
  0.3333603878123400  0.1666801939061771  0.4033578624968672
  0.5000268713060899  0.0000537426121799  0.4034552411429310
  0.3333326666666636  0.6666663333333389  0.4033720718034461
  0.5000268713060899  0.4999721286939126  0.4034552411429310
  0.8333188060938255  0.1666801939061771  0.4033578624968672
  0.9999996666666675  0.9999993333333350  0.4032494383709825
  0.8333188060938255  0.6666386121876631  0.4033578624968672
 -0.0000547426121772  0.4999721286939126  0.4034552411429310
 
  0.00000000E+00  0.00000000E+00  0.00000000E+00
  0.00000000E+00  0.00000000E+00  0.00000000E+00
  0.00000000E+00  0.00000000E+00  0.00000000E+00
  0.00000000E+00  0.00000000E+00  0.00000000E+00
  0.00000000E+00  0.00000000E+00  0.00000000E+00
  0.00000000E+00  0.00000000E+00  0.00000000E+00
  0.00000000E+00  0.00000000E+00  0.00000000E+00
  0.00000000E+00  0.00000000E+00  0.00000000E+00
  0.00000000E+00  0.00000000E+00  0.00000000E+00
  0.00000000E+00  0.00000000E+00  0.00000000E+00
  0.00000000E+00  0.00000000E+00  0.00000000E+00
  0.00000000E+00  0.00000000E+00  0.00000000E+00
  0.00000000E+00  0.00000000E+00  0.00000000E+00
  0.00000000E+00  0.00000000E+00  0.00000000E+00
  0.00000000E+00  0.00000000E+00  0.00000000E+00
  0.00000000E+00  0.00000000E+00  0.00000000E+00
