Graphene-Borophene Hollow 2 with lattice
   1.00000000000000     
     4.3093424092313661    2.4880000000000000    0.0000000000000000
    -4.3093424092313661    2.4880000000000000    0.0000000000000000
     0.0000000000000000    0.0000000000000000   15.0000000000000000
   B    C 
     8     8
Direct
  0.6696497278192137 -0.0001152729146833  0.1625889993254685
  0.3302339992661054 -0.0001152729146833  0.1625889993254685
  0.0001152729146833  0.3303492721807887  0.1625889993254685
  0.0001152729146833  0.6697650007338970  0.1625889993254685
  0.3302339992661054  0.3303492721807888  0.1625889993254685
  0.6696497278192137  0.6697650007338970  0.1625889993254685
  0.6666659999999993  0.3333330000000032  0.1578001350713533
  0.3333330000000032  0.6666659999999993  0.1787835296102610
  0.3401184497043242  0.1700592248521692  0.4070820266923176
  0.4986583396446594 -0.0026833207106811  0.4061103161326721
  0.3333326666666636  0.6666663333333389  0.4050520468438479
  0.4986583396446594  0.5013406603553433  0.4061103161326721
  0.8299397751478333  0.1700592248521692  0.4070820266923176
  0.9999996666666675  0.9999993333333350  0.4080532640467485
  0.8299397751478333  0.6598805502956783  0.4070820266923176
  0.0026823207106838  0.5013406603553433  0.4061103161326721
 
  0.00000000E+00  0.00000000E+00  0.00000000E+00
  0.00000000E+00  0.00000000E+00  0.00000000E+00
  0.00000000E+00  0.00000000E+00  0.00000000E+00
  0.00000000E+00  0.00000000E+00  0.00000000E+00
  0.00000000E+00  0.00000000E+00  0.00000000E+00
  0.00000000E+00  0.00000000E+00  0.00000000E+00
  0.00000000E+00  0.00000000E+00  0.00000000E+00
  0.00000000E+00  0.00000000E+00  0.00000000E+00
  0.00000000E+00  0.00000000E+00  0.00000000E+00
  0.00000000E+00  0.00000000E+00  0.00000000E+00
  0.00000000E+00  0.00000000E+00  0.00000000E+00
  0.00000000E+00  0.00000000E+00  0.00000000E+00
  0.00000000E+00  0.00000000E+00  0.00000000E+00
  0.00000000E+00  0.00000000E+00  0.00000000E+00
  0.00000000E+00  0.00000000E+00  0.00000000E+00
  0.00000000E+00  0.00000000E+00  0.00000000E+00
