k-points 38
0
Gamma
38    38    1
0    0    0