Graphene-Borophene Hollow 1 with lattice
   1.00000000000000     
     4.2435244785437494    2.4500000000000002    0.0000000000000000
    -4.2435244785437494    2.4500000000000002    0.0000000000000000
     0.0000000000000000    0.0000000000000000   15.0000000000000000
   B    C 
     8     8
Direct
  0.6697062331323941 -0.0005909105868315  0.1653037248313383
  0.3312856428203551 -0.0004860956745334  0.1655604782248142
  0.0005909105868315  0.3302927668676089  0.1653037248313383
  0.0004860956745334  0.6687133571796475  0.1655604782248142
  0.3308883958153791  0.3301951123468147  0.1664251037452899
  0.6698038876531882  0.6691106041846235  0.1664251037452899
  0.6668433865671465  0.3331556134328559  0.1817383212607604
  0.3335052799110012  0.6664937200890010  0.1494996291278325
  0.2773146943747458  0.2225611009854619  0.4038762310944948
  0.4439797687710875  0.0559191282034894  0.4039374931370721
  0.2773217885841743  0.7226772114158282  0.4038577041274782
  0.4440655890015027  0.5559334109985001  0.4038688337161165
  0.7774366208619601  0.2225623791380422  0.4039145228634858
  0.9441358243235796  0.0558631756764231  0.4037149268383182
  0.7774378990145400  0.7226843056252564  0.4038762310944948
  0.9440798717965130  0.5560192312289155  0.4039374931370721
 
  0.00000000E+00  0.00000000E+00  0.00000000E+00
  0.00000000E+00  0.00000000E+00  0.00000000E+00
  0.00000000E+00  0.00000000E+00  0.00000000E+00
  0.00000000E+00  0.00000000E+00  0.00000000E+00
  0.00000000E+00  0.00000000E+00  0.00000000E+00
  0.00000000E+00  0.00000000E+00  0.00000000E+00
  0.00000000E+00  0.00000000E+00  0.00000000E+00
  0.00000000E+00  0.00000000E+00  0.00000000E+00
  0.00000000E+00  0.00000000E+00  0.00000000E+00
  0.00000000E+00  0.00000000E+00  0.00000000E+00
  0.00000000E+00  0.00000000E+00  0.00000000E+00
  0.00000000E+00  0.00000000E+00  0.00000000E+00
  0.00000000E+00  0.00000000E+00  0.00000000E+00
  0.00000000E+00  0.00000000E+00  0.00000000E+00
  0.00000000E+00  0.00000000E+00  0.00000000E+00
  0.00000000E+00  0.00000000E+00  0.00000000E+00
