Graphene-B4C3 Hollow 2 with lattice para
   1.00000000000000     
     4.2149456402188630    2.4335000000000000    0.0000000000000000
    -4.2149456402188630    2.4335000000000000    0.0000000000000000
     0.0000000000000000    0.0000000000000000   15.0000000000000000
   B    C 
     4    11
Direct
  0.0044178449152523  0.0029377736576654  0.0997332875379467
  0.3595595312251355  0.0029443351476456  0.1008074993834577
  0.0044275453425701  0.3580792674408593  0.1008096163387096
  0.6492847438336641  0.6478013620899413  0.1008138101284948
  0.3279011852896984  0.3264171350104620  0.1006207654949175
  0.6809516870862878  0.0029454859679372  0.1006210695119547
  0.0044284517433912  0.6794685829405943  0.1006214836174255
  0.1664360445717003  0.3331858541870542  0.3384274487944071
  0.3331211724248933  0.1664985738877816  0.3384291838238288
  0.1664794686449056  0.8332128993898718  0.3384314723523719
  0.3331209850344721  0.6665209630159284  0.3383230139426020
  0.6664545064391374  0.3331859361559472  0.3383230393011358
  0.8331471644538186  0.1665442127450578  0.3384308338322808
  0.6664574892235628  0.8331689415830151  0.3384272785934415
  0.8331061797715168  0.6665226767802505  0.3384261973470524
 
  0.00000000E+00  0.00000000E+00  0.00000000E+00
  0.00000000E+00  0.00000000E+00  0.00000000E+00
  0.00000000E+00  0.00000000E+00  0.00000000E+00
  0.00000000E+00  0.00000000E+00  0.00000000E+00
  0.00000000E+00  0.00000000E+00  0.00000000E+00
  0.00000000E+00  0.00000000E+00  0.00000000E+00
  0.00000000E+00  0.00000000E+00  0.00000000E+00
  0.00000000E+00  0.00000000E+00  0.00000000E+00
  0.00000000E+00  0.00000000E+00  0.00000000E+00
  0.00000000E+00  0.00000000E+00  0.00000000E+00
  0.00000000E+00  0.00000000E+00  0.00000000E+00
  0.00000000E+00  0.00000000E+00  0.00000000E+00
  0.00000000E+00  0.00000000E+00  0.00000000E+00
  0.00000000E+00  0.00000000E+00  0.00000000E+00
  0.00000000E+00  0.00000000E+00  0.00000000E+00
