Graphene-Borophene Top with lattice parameter 4.945 and distance 5.516
        1.0
        4.2824956217140491    2.4725000000000001    0.0000000000000000
       -4.2824956217140491    2.4725000000000001    0.0000000000000000
        0.0000000000000000    0.0000000000000000   15.0000000000000000
        B   C
        8   8
        Direct
        0.6688868879072842  0.0000000000000000  0.1000000000000014
        0.3311121120927183  0.0000000000000000  0.1000000000000014
        0.0000000000000000  0.3311121120927183  0.1000000000000014
        0.0000000000000000  0.6688868879072842  0.1000000000000014
        0.3311121120927183  0.3311121120927183  0.1000000000000014
        0.6688868879072842  0.6688868879072842  0.1000000000000014
        0.6666659999999993  0.3333330000000032  0.0992218869917920
        0.3333330000000032  0.6666659999999993  0.1007781130082108
        0.1666659999999993  0.3333330000000032  0.4677333333333333
        0.3333330000000032  0.1666659999999993  0.4677333333333333
        0.1666659999999993  0.8333330000000032  0.4677333333333333
        0.3333330000000032  0.6666659999999993  0.4677333333333333
        0.6666659999999993  0.3333330000000032  0.4677333333333333
        0.8333330000000032  0.1666659999999993  0.4677333333333333
        0.6666659999999993  0.8333330000000032  0.4677333333333333
        0.8333330000000032  0.6666659999999993  0.4677333333333333