Graphene-B4C3 Hollow 1 with lattice para
   1.00000000000000     
     4.2036873099696637    2.4269999999999992    0.0000000000000000
    -4.2036873099696637    2.4269999999999992    0.0000000000000000
     0.0000000000000000    0.0000000000000000   15.0000000000000000
   B    C 
     4    11
Direct
  0.0041605624402553  0.0026834807955533  0.1196594454792415
  0.3563006779857122  0.0028232712217328  0.0976661615503383
  0.0042137552420775  0.3549718108026238  0.0976968902200892
  0.6520191052052128  0.6506062137297320  0.0976741170376615
  0.3263126994036423  0.3248630878299087  0.1003094849246851
  0.6821881773456681  0.0027877862225642  0.1003023049862364
  0.0041956473065930  0.6806222799393276  0.1002743447952847
  0.1110737634275517  0.3889409084142650  0.3372736742854393
  0.2778469425507670  0.2222837821124206  0.3373116001603235
  0.1112057568102826  0.8889561331509896  0.3372795565069909
  0.2778751400208468  0.7222201085002181  0.3372356018714124
  0.6110908009760541  0.3888620486910191  0.3372330759541273
  0.7777569649485089  0.2222456735029234  0.3372784434632944
  0.6110165216516753  0.8888627910167035  0.3373057878358392
  0.7775930402407026  0.7221490685144862  0.3372788442623574
 
  0.00000000E+00  0.00000000E+00  0.00000000E+00
  0.00000000E+00  0.00000000E+00  0.00000000E+00
  0.00000000E+00  0.00000000E+00  0.00000000E+00
  0.00000000E+00  0.00000000E+00  0.00000000E+00
  0.00000000E+00  0.00000000E+00  0.00000000E+00
  0.00000000E+00  0.00000000E+00  0.00000000E+00
  0.00000000E+00  0.00000000E+00  0.00000000E+00
  0.00000000E+00  0.00000000E+00  0.00000000E+00
  0.00000000E+00  0.00000000E+00  0.00000000E+00
  0.00000000E+00  0.00000000E+00  0.00000000E+00
  0.00000000E+00  0.00000000E+00  0.00000000E+00
  0.00000000E+00  0.00000000E+00  0.00000000E+00
  0.00000000E+00  0.00000000E+00  0.00000000E+00
  0.00000000E+00  0.00000000E+00  0.00000000E+00
  0.00000000E+00  0.00000000E+00  0.00000000E+00
