Graphene-B4C3 Hollow 1 with lattice para
   1.00000000000000     
     4.2036873099696637    2.4269999999999992    0.0000000000000000
    -4.2036873099696637    2.4269999999999992    0.0000000000000000
     0.0000000000000000    0.0000000000000000   15.0000000000000000
   B    C 
     4    11
Direct
  0.0044981293946030  0.0025559318666375  0.1042446011019211
  0.3592808183728028  0.0023710608852328  0.1007270232710514
  0.0047074656849121  0.3573082091362239  0.1010724490850542
  0.6499552912305251  0.6475478972983428  0.1009611133551030
  0.3284745924851746  0.3262409309462029  0.1014548434110903
  0.6806991313809565  0.0022771498981053  0.1017457425550278
  0.0045733607436503  0.6786199477450338  0.1014914939426765
  0.1107264872459551  0.3891961657448432  0.3374729217256943
  0.2773970200281871  0.2225000928405254  0.3375905364815078
  0.1107521765194423  0.8892347331282355  0.3375651500654702
  0.2774285491266426  0.7225312727198627  0.3374540797363415
  0.6107484693364159  0.3892095596531520  0.3374658831117969
  0.7774261933616174  0.2225171923784270  0.3374688240666229
  0.6107633683787189  0.8892290112809883  0.3375555789864293
  0.7774185022659459  0.7225392889226550  0.3375090924375341
 
  0.00000000E+00  0.00000000E+00  0.00000000E+00
  0.00000000E+00  0.00000000E+00  0.00000000E+00
  0.00000000E+00  0.00000000E+00  0.00000000E+00
  0.00000000E+00  0.00000000E+00  0.00000000E+00
  0.00000000E+00  0.00000000E+00  0.00000000E+00
  0.00000000E+00  0.00000000E+00  0.00000000E+00
  0.00000000E+00  0.00000000E+00  0.00000000E+00
  0.00000000E+00  0.00000000E+00  0.00000000E+00
  0.00000000E+00  0.00000000E+00  0.00000000E+00
  0.00000000E+00  0.00000000E+00  0.00000000E+00
  0.00000000E+00  0.00000000E+00  0.00000000E+00
  0.00000000E+00  0.00000000E+00  0.00000000E+00
  0.00000000E+00  0.00000000E+00  0.00000000E+00
  0.00000000E+00  0.00000000E+00  0.00000000E+00
  0.00000000E+00  0.00000000E+00  0.00000000E+00
