Graphene-B4C3 Hollow 1 with lattice para
   1.00000000000000     
     4.2036873099696637    2.4269999999999992    0.0000000000000000
    -4.2036873099696637    2.4269999999999992    0.0000000000000000
     0.0000000000000000    0.0000000000000000   15.0000000000000000
   B    C 
     4    11
Direct
  0.0455039475619199 -0.0341477489008709  0.1005209321591621
  0.4007397507824852 -0.0341370680645562  0.1019977190165879
  0.0458811570102440  0.3209819730117897  0.1027425266072425
  0.6907869758239723  0.6104160822070410  0.1024909424758261
  0.3694375973535598  0.2890577144416222  0.1019759238121278
  0.7223950752375775 -0.0341924679400970  0.1021872345167291
  0.0448496493444508  0.6417396329101722  0.1020286840786798
  0.0745581453891284  0.4212753779646805  0.3372210411261476
  0.2412754556635941  0.2542523508782997  0.3371632555789545
  0.0750556672966466  0.9216257423443310  0.3371942736408509
  0.2414947350204924  0.7547399692124631  0.3373490999002462
  0.5749777852591954  0.4213332166107921  0.3373764182944570
  0.7415054225594433  0.2546810334640421  0.3371387387978865
  0.5749282115633181  0.9215784414241218  0.3372031475943759
  0.7414599796895228  0.7546741948806358  0.3371893957340475
 
  0.00000000E+00  0.00000000E+00  0.00000000E+00
  0.00000000E+00  0.00000000E+00  0.00000000E+00
  0.00000000E+00  0.00000000E+00  0.00000000E+00
  0.00000000E+00  0.00000000E+00  0.00000000E+00
  0.00000000E+00  0.00000000E+00  0.00000000E+00
  0.00000000E+00  0.00000000E+00  0.00000000E+00
  0.00000000E+00  0.00000000E+00  0.00000000E+00
  0.00000000E+00  0.00000000E+00  0.00000000E+00
  0.00000000E+00  0.00000000E+00  0.00000000E+00
  0.00000000E+00  0.00000000E+00  0.00000000E+00
  0.00000000E+00  0.00000000E+00  0.00000000E+00
  0.00000000E+00  0.00000000E+00  0.00000000E+00
  0.00000000E+00  0.00000000E+00  0.00000000E+00
  0.00000000E+00  0.00000000E+00  0.00000000E+00
  0.00000000E+00  0.00000000E+00  0.00000000E+00
