Graphene-B4C3 Hollow 1 with lattice para
   1.00000000000000     
     4.2010892337583119    2.4255000000000000    0.0000000000000000
    -4.2010892337583119    2.4255000000000000    0.0000000000000000
     0.0000000000000000    0.0000000000000000   15.0000000000000000
   B    C 
     4    11
Direct
  0.0092015883300479 -0.0016186863675992  0.1008207372807171
  0.3642313039975777 -0.0018275558446903  0.1007833050064596
  0.0092486816821593  0.3534948508345411  0.1009397295487637
  0.6541878457926349  0.6430977172425874  0.1008779171395832
  0.3329778994461861  0.3217608942872916  0.1007952472174772
  0.6857852335922274 -0.0016369318779785  0.1005736132642937
  0.0092447295884054  0.6746403507191501  0.1008057313606878
  0.1067213060991626  0.3928179871601653  0.3382520196357039
  0.2733577000563587  0.2261848508875879  0.3382917094938340
  0.1067607747703731  0.8928698672079605  0.3383042372476516
  0.2732749850151143  0.7261710128658564  0.3382761235988913
  0.6065610504089632  0.3927643713848372  0.3383017521000085
  0.7733269725903588  0.2261870355077375  0.3382286340906304
  0.6066687338277502  0.8928168824584320  0.3382834479000545
  0.7733007503582292  0.7261557979785894  0.3382451284485647
 
  0.00000000E+00  0.00000000E+00  0.00000000E+00
  0.00000000E+00  0.00000000E+00  0.00000000E+00
  0.00000000E+00  0.00000000E+00  0.00000000E+00
  0.00000000E+00  0.00000000E+00  0.00000000E+00
  0.00000000E+00  0.00000000E+00  0.00000000E+00
  0.00000000E+00  0.00000000E+00  0.00000000E+00
  0.00000000E+00  0.00000000E+00  0.00000000E+00
  0.00000000E+00  0.00000000E+00  0.00000000E+00
  0.00000000E+00  0.00000000E+00  0.00000000E+00
  0.00000000E+00  0.00000000E+00  0.00000000E+00
  0.00000000E+00  0.00000000E+00  0.00000000E+00
  0.00000000E+00  0.00000000E+00  0.00000000E+00
  0.00000000E+00  0.00000000E+00  0.00000000E+00
  0.00000000E+00  0.00000000E+00  0.00000000E+00
  0.00000000E+00  0.00000000E+00  0.00000000E+00
