Graphene-B4C3 Hollow 1 with lattice para
   1.00000000000000     
     4.2010892337583119    2.4255000000000000    0.0000000000000000
    -4.2010892337583119    2.4255000000000000    0.0000000000000000
     0.0000000000000000    0.0000000000000000   15.0000000000000000
   B    C 
     4    11
Direct
  0.0093933584528967 -0.0017975683646814  0.1008612058727398
  0.3644193996306505 -0.0019875215295517  0.1007433042220543
  0.0094561435776403  0.3533513155697403  0.1008961797917596
  0.6543892725990542  0.6429207028446378  0.1008361401794067
  0.3331710927829315  0.3216138412568644  0.1007525617411777
  0.6859796751752290 -0.0018519598786442  0.1005844524064292
  0.0094241498394874  0.6744565587958322  0.1007656976857955
  0.1065219150629846  0.3929728618283854  0.3382698193095610
  0.2731754177574392  0.2263156242892846  0.3383137336925362
  0.1065568910293465  0.8930236337573582  0.3383177466269411
  0.2731454079004288  0.7263168918232900  0.3382955414232121
  0.6064269689507814  0.3929419226841747  0.3383153006367852
  0.7731658111205235  0.2263275018263806  0.3382545290050582
  0.6064867334726016  0.8929718047186668  0.3383065342845942
  0.7731373182035536  0.7263028348227309  0.3382665864552702
 
  0.00000000E+00  0.00000000E+00  0.00000000E+00
  0.00000000E+00  0.00000000E+00  0.00000000E+00
  0.00000000E+00  0.00000000E+00  0.00000000E+00
  0.00000000E+00  0.00000000E+00  0.00000000E+00
  0.00000000E+00  0.00000000E+00  0.00000000E+00
  0.00000000E+00  0.00000000E+00  0.00000000E+00
  0.00000000E+00  0.00000000E+00  0.00000000E+00
  0.00000000E+00  0.00000000E+00  0.00000000E+00
  0.00000000E+00  0.00000000E+00  0.00000000E+00
  0.00000000E+00  0.00000000E+00  0.00000000E+00
  0.00000000E+00  0.00000000E+00  0.00000000E+00
  0.00000000E+00  0.00000000E+00  0.00000000E+00
  0.00000000E+00  0.00000000E+00  0.00000000E+00
  0.00000000E+00  0.00000000E+00  0.00000000E+00
  0.00000000E+00  0.00000000E+00  0.00000000E+00
