Graphene-BC3 Hollow with lattice paramet
   1.00000000000000     
     4.3214667648843479    2.4949999999999997    0.0000000000000000
    -4.3214667648843479    2.4949999999999997    0.0000000000000000
     0.0000000000000000    0.0000000000000000   15.0000000000000000
   B    C 
     2    14
Direct
  0.3382233648482079  0.6691108568242693  0.1006669843998091
  0.6715580403834124  0.3357787855463999  0.1003433167804890
  0.1648503519462701  0.3223635386433272  0.1003879635026542
  0.3247384275888051  0.1623681037227080  0.1004178294193113
  0.1648501093373464  0.8424847757156780  0.1003888074680882
  0.8449625424808151  0.1623667240426261  0.1003422870124706
  0.6849664163095891  0.8424817334012104  0.1003152411947264
  0.8449629302670436  0.6825936306304855  0.1003431661013557
  0.3334588191064063  0.1667298965531337  0.3251848780632889
  0.5001457316538220  0.0001311139438937  0.3251606085477764
  0.3334414896106543  0.6667212409956395  0.3248799736725946
  0.5001457151594999  0.5000156083068303  0.3251606173316624
  0.8334369886753015  0.1667309809801913  0.3251795100123524
  0.0001116278115578  0.0000563051750392  0.3251550168871398
  0.8334369917164665  0.6667069894290755  0.3251795264847041
  0.0000357864381369  0.5000183827561867  0.3251609397882494
 
  0.00000000E+00  0.00000000E+00  0.00000000E+00
  0.00000000E+00  0.00000000E+00  0.00000000E+00
  0.00000000E+00  0.00000000E+00  0.00000000E+00
  0.00000000E+00  0.00000000E+00  0.00000000E+00
  0.00000000E+00  0.00000000E+00  0.00000000E+00
  0.00000000E+00  0.00000000E+00  0.00000000E+00
  0.00000000E+00  0.00000000E+00  0.00000000E+00
  0.00000000E+00  0.00000000E+00  0.00000000E+00
  0.00000000E+00  0.00000000E+00  0.00000000E+00
  0.00000000E+00  0.00000000E+00  0.00000000E+00
  0.00000000E+00  0.00000000E+00  0.00000000E+00
  0.00000000E+00  0.00000000E+00  0.00000000E+00
  0.00000000E+00  0.00000000E+00  0.00000000E+00
  0.00000000E+00  0.00000000E+00  0.00000000E+00
  0.00000000E+00  0.00000000E+00  0.00000000E+00
  0.00000000E+00  0.00000000E+00  0.00000000E+00
