Graphene-B4C3 Bridge with lattice parame
   1.00000000000000     
     4.1967591067393899    2.4230000000000000    0.0000000000000000
    -4.1967591067393899    2.4230000000000000    0.0000000000000000
     0.0000000000000000    0.0000000000000000   15.0000000000000000
   B    C 
     4    11
Direct
  0.0226090579591260 -0.0147562180416007  0.1037364337815476
  0.3777989307863573 -0.0145856484111989  0.0997266166890382
  0.0224536235051191  0.3401869340553834  0.0994748604397701
  0.6675683785318807  0.6301343822442149  0.0995628858297009
  0.3461473147795652  0.3086738337249001  0.0998496663038688
  0.6992287020090928 -0.0146306493787919  0.1001080278211997
  0.0225791277239438  0.6617372046613523  0.0998780148320880
  0.0674475111491655  0.4321011891816054  0.3360741024452298
  0.2339400618535027  0.2652568870197023  0.3360948220429086
  0.0671295526738244  0.9320403893812417  0.3360440752138882
  0.2338807283468545  0.7654147635478247  0.3360908870299936
  0.5670276684300154  0.4321463293727030  0.3360862510173067
  0.7337429356891244  0.2652401724959910  0.3360438618783128
  0.5671006059250604  0.9318692370023729  0.3361539973544737
  0.7339731339706895  0.7652718598109967  0.3360548306539861
 
  0.00000000E+00  0.00000000E+00  0.00000000E+00
  0.00000000E+00  0.00000000E+00  0.00000000E+00
  0.00000000E+00  0.00000000E+00  0.00000000E+00
  0.00000000E+00  0.00000000E+00  0.00000000E+00
  0.00000000E+00  0.00000000E+00  0.00000000E+00
  0.00000000E+00  0.00000000E+00  0.00000000E+00
  0.00000000E+00  0.00000000E+00  0.00000000E+00
  0.00000000E+00  0.00000000E+00  0.00000000E+00
  0.00000000E+00  0.00000000E+00  0.00000000E+00
  0.00000000E+00  0.00000000E+00  0.00000000E+00
  0.00000000E+00  0.00000000E+00  0.00000000E+00
  0.00000000E+00  0.00000000E+00  0.00000000E+00
  0.00000000E+00  0.00000000E+00  0.00000000E+00
  0.00000000E+00  0.00000000E+00  0.00000000E+00
  0.00000000E+00  0.00000000E+00  0.00000000E+00
