Graphene-BC3 Hollow with lattice paramet
   1.00000000000000     
     4.3569738064395107    2.5154999999999998    0.0000000000000000
    -4.3569738064395107    2.5154999999999998    0.0000000000000000
     0.0000000000000000    0.0000000000000000   15.0000000000000000
   B    C 
     2    14
Direct
  0.3383181967178637  0.6691586056122549  0.1003223214678767
  0.6716536868457366  0.3358263308393181  0.1000098076414396
  0.1646888719060802  0.3219011968987823  0.1000215207234717
  0.3243219458804477  0.1621603656738178  0.1000273182240578
  0.1646887048276603  0.8427869171661738  0.1000215393572874
  0.8453140548219655  0.1621590828559843  0.1000225281759263
  0.6855691346369016  0.8427840328264157  0.1000168091053739
  0.8453143182121150  0.6831542006772827  0.1000225411620450
  0.3333652680090397  0.1666825848727166  0.3255256195927302
  0.5000533676875605  1.0000884294688608  0.3255026251045051
  0.3333468820751898  0.6666733925565296  0.3252242262247776
  0.5000533694193839  0.4999648978172175  0.3255026254499407
  0.8333422584950491  0.1666839036305532  0.3255209695238719
  1.0000170933196564  1.0000085264715290  0.3255019601657574
  0.8333422590598890  0.6666582579031719  0.3255209703769011
  0.9999359214187946  0.4999679413960854  0.3255032843707094
 
  0.00000000E+00  0.00000000E+00  0.00000000E+00
  0.00000000E+00  0.00000000E+00  0.00000000E+00
  0.00000000E+00  0.00000000E+00  0.00000000E+00
  0.00000000E+00  0.00000000E+00  0.00000000E+00
  0.00000000E+00  0.00000000E+00  0.00000000E+00
  0.00000000E+00  0.00000000E+00  0.00000000E+00
  0.00000000E+00  0.00000000E+00  0.00000000E+00
  0.00000000E+00  0.00000000E+00  0.00000000E+00
  0.00000000E+00  0.00000000E+00  0.00000000E+00
  0.00000000E+00  0.00000000E+00  0.00000000E+00
  0.00000000E+00  0.00000000E+00  0.00000000E+00
  0.00000000E+00  0.00000000E+00  0.00000000E+00
  0.00000000E+00  0.00000000E+00  0.00000000E+00
  0.00000000E+00  0.00000000E+00  0.00000000E+00
  0.00000000E+00  0.00000000E+00  0.00000000E+00
  0.00000000E+00  0.00000000E+00  0.00000000E+00
