Graphene-B4C3 Hollow 1 with lattice para
   1.00000000000000     
     4.2097494877961559    2.4304999999999999    0.0000000000000000
    -4.2097494877961559    2.4304999999999999    0.0000000000000000
     0.0000000000000000    0.0000000000000000   15.0000000000000000
   B    C 
     4    11
Direct
  0.0292856994593205 -0.0195392582420011  0.1014160501504183
  0.3843486990716984 -0.0195125233793374  0.0995727995347825
  0.0292621229642057  0.3354223168204479  0.0997600606560497
  0.6742879175800035  0.6251648552444338  0.0997063140094070
  0.3527831127146041  0.3035340575164622  0.0998051616726299
  0.7060235802116509 -0.0194500787970259  0.0994045047535220
  0.0290236744929886  0.6568659287041039  0.0998453414082002
  0.0891066715902323  0.4084944288818861  0.3389669172961349
  0.2558894230359283  0.2419772379483732  0.3391774166175564
  0.0891535605727634  0.9084981374922247  0.3390448350350062
  0.2559063683748371  0.7417978458725871  0.3390288786946967
  0.5891303469406913  0.4084646484635266  0.3389809202714333
  0.7557999256220856  0.2417702522461290  0.3389697676942552
  0.5891425099181485  0.9086197893340673  0.3390362765248653
  0.7557059430063924  0.7417708063385917  0.3390640890143636
 
  0.00000000E+00  0.00000000E+00  0.00000000E+00
  0.00000000E+00  0.00000000E+00  0.00000000E+00
  0.00000000E+00  0.00000000E+00  0.00000000E+00
  0.00000000E+00  0.00000000E+00  0.00000000E+00
  0.00000000E+00  0.00000000E+00  0.00000000E+00
  0.00000000E+00  0.00000000E+00  0.00000000E+00
  0.00000000E+00  0.00000000E+00  0.00000000E+00
  0.00000000E+00  0.00000000E+00  0.00000000E+00
  0.00000000E+00  0.00000000E+00  0.00000000E+00
  0.00000000E+00  0.00000000E+00  0.00000000E+00
  0.00000000E+00  0.00000000E+00  0.00000000E+00
  0.00000000E+00  0.00000000E+00  0.00000000E+00
  0.00000000E+00  0.00000000E+00  0.00000000E+00
  0.00000000E+00  0.00000000E+00  0.00000000E+00
  0.00000000E+00  0.00000000E+00  0.00000000E+00
