Graphene-Borophene Bridge with lattice p
   1.00000000000000     
     4.3206007394805637    2.4944999999999999    0.0000000000000000
    -4.3206007394805637    2.4944999999999999    0.0000000000000000
     0.0000000000000000    0.0000000000000000   15.0000000000000000
   B    C 
     8     8
Direct
  0.6738051289943564 -0.0046517158788883  0.1677350180479734
  0.3357137345687572 -0.0044313606205694  0.1678247974321176
  0.0046517158788883  0.3261938710056462  0.1677350180479734
  0.0044313606205694  0.6642852654312446  0.1678247974321176
  0.3354819799281192  0.3261239713398192  0.1673895849598858
  0.6738750286601839  0.6645170200718838  0.1673895849598858
  0.6709041240362804  0.3290948759637217  0.1602989457167321
  0.3377221687758866  0.6622768312241164  0.1749036846490255
  0.2454195760737420  0.2545959556642470  0.4013745222183654
  0.4121249264697582  0.0879310423037714  0.4014806127148869
  0.2454125493777606  0.7545864506222414  0.4015747525972033
  0.4121337671854868  0.5878652328145159  0.4015351466011620
  0.7454163601031488  0.2545826398968535  0.4013927147595491
  0.9120962439617789  0.0879027560382238  0.4012190182632427
  0.7454030443357552  0.7545794239262599  0.4013745222183654
  0.9120679576962313  0.5878740735302439  0.4014806127148869
 
  0.00000000E+00  0.00000000E+00  0.00000000E+00
  0.00000000E+00  0.00000000E+00  0.00000000E+00
  0.00000000E+00  0.00000000E+00  0.00000000E+00
  0.00000000E+00  0.00000000E+00  0.00000000E+00
  0.00000000E+00  0.00000000E+00  0.00000000E+00
  0.00000000E+00  0.00000000E+00  0.00000000E+00
  0.00000000E+00  0.00000000E+00  0.00000000E+00
  0.00000000E+00  0.00000000E+00  0.00000000E+00
  0.00000000E+00  0.00000000E+00  0.00000000E+00
  0.00000000E+00  0.00000000E+00  0.00000000E+00
  0.00000000E+00  0.00000000E+00  0.00000000E+00
  0.00000000E+00  0.00000000E+00  0.00000000E+00
  0.00000000E+00  0.00000000E+00  0.00000000E+00
  0.00000000E+00  0.00000000E+00  0.00000000E+00
  0.00000000E+00  0.00000000E+00  0.00000000E+00
  0.00000000E+00  0.00000000E+00  0.00000000E+00
