Graphene-BC3 Bridge with lattice paramet
   1.00000000000000     
     4.3708302129000609    2.5234999999999999    0.0000000000000000
    -4.3708302129000609    2.5234999999999999    0.0000000000000000
     0.0000000000000000    0.0000000000000000   15.0000000000000000
   B    C 
     2    14
Direct
  0.3170748998594436  0.6917515438086416  0.1007278807822543
  0.6504525247803057  0.3583926814839866  0.1004878434392685
  0.1433666389500264  0.3443268496140982  0.1002523493495314
  0.3028830687644793  0.1846811802625041  0.1005997229695181
  0.1433043836292644  0.8655365314303245  0.1007720494820243
  0.8241713345445810  0.1846578907149426  0.1000844341319628
  0.6645070820448987  0.8654815090363832  0.1002748470455291
  0.8241482843310323  0.7059553121493303  0.1006217304636746
  0.2712750074657869  0.2273711026968378  0.3259401660707616
  0.4379144418627275  0.0608002253543746  0.3258908177580625
  0.2712248339773863  0.7274394480432238  0.3256312584039536
  0.4379530634383618  0.5607015523931229  0.3258389937429214
  0.7712715122710908  0.2273938824688656  0.3258283968424154
  0.9379616815230228  0.0606980485710517  0.3258929749154770
  0.7712877386146271  0.7273877906939411  0.3259383426630019
  0.9378621706096718  0.5607497846116950  0.3258848586063003
 
  0.00000000E+00  0.00000000E+00  0.00000000E+00
  0.00000000E+00  0.00000000E+00  0.00000000E+00
  0.00000000E+00  0.00000000E+00  0.00000000E+00
  0.00000000E+00  0.00000000E+00  0.00000000E+00
  0.00000000E+00  0.00000000E+00  0.00000000E+00
  0.00000000E+00  0.00000000E+00  0.00000000E+00
  0.00000000E+00  0.00000000E+00  0.00000000E+00
  0.00000000E+00  0.00000000E+00  0.00000000E+00
  0.00000000E+00  0.00000000E+00  0.00000000E+00
  0.00000000E+00  0.00000000E+00  0.00000000E+00
  0.00000000E+00  0.00000000E+00  0.00000000E+00
  0.00000000E+00  0.00000000E+00  0.00000000E+00
  0.00000000E+00  0.00000000E+00  0.00000000E+00
  0.00000000E+00  0.00000000E+00  0.00000000E+00
  0.00000000E+00  0.00000000E+00  0.00000000E+00
  0.00000000E+00  0.00000000E+00  0.00000000E+00
