Graphene-Borophene Hollow 2 with lattice
   1.00000000000000     
     4.3561077810357238    2.5149999999999988    0.0000000000000000
    -4.3561077810357238    2.5149999999999988    0.0000000000000000
     0.0000000000000000    0.0000000000000000   15.0000000000000000
   B    C 
     8     8
Direct
  0.6691977842021153  0.0000598090988201  0.1547011409655689
  0.3308610248967075  0.0000598090988201  0.1547011409655689
 -0.0000598090988201  0.3308012157978873  0.1547011409655689
 -0.0000598090988201  0.6691379751032950  0.1547011409655689
  0.3308610248967075  0.3308012157978873  0.1547011409655689
  0.6691977842021153  0.6691379751032950  0.1547011409655689
  0.6666659999999993  0.3333330000000032  0.1756591569462204
  0.3333330000000032  0.6666659999999993  0.1481013224603559
  0.3382282302814340  0.1691141151407241  0.4145116257163341
  0.4989827269443897 -0.0020345461112208  0.4137149440302759
  0.3333326666666636  0.6666663333333389  0.4128119808180446
  0.4989827269443897  0.5010162730556129  0.4137149440302759
  0.8308848848592784  0.1691141151407241  0.4145116257163341
  0.9999996666666675  0.9999993333333350  0.4153409847421274
  0.8308848848592784  0.6617707697185689  0.4145116257163341
  0.0020335461112234  0.5010162730556129  0.4137149440302759
 
  0.00000000E+00  0.00000000E+00  0.00000000E+00
  0.00000000E+00  0.00000000E+00  0.00000000E+00
  0.00000000E+00  0.00000000E+00  0.00000000E+00
  0.00000000E+00  0.00000000E+00  0.00000000E+00
  0.00000000E+00  0.00000000E+00  0.00000000E+00
  0.00000000E+00  0.00000000E+00  0.00000000E+00
  0.00000000E+00  0.00000000E+00  0.00000000E+00
  0.00000000E+00  0.00000000E+00  0.00000000E+00
  0.00000000E+00  0.00000000E+00  0.00000000E+00
  0.00000000E+00  0.00000000E+00  0.00000000E+00
  0.00000000E+00  0.00000000E+00  0.00000000E+00
  0.00000000E+00  0.00000000E+00  0.00000000E+00
  0.00000000E+00  0.00000000E+00  0.00000000E+00
  0.00000000E+00  0.00000000E+00  0.00000000E+00
  0.00000000E+00  0.00000000E+00  0.00000000E+00
  0.00000000E+00  0.00000000E+00  0.00000000E+00
