Graphene-B4C3 Bridge with lattice parame
   1.00000000000000     
     4.1984911575469575    2.4239999999999995    0.0000000000000000
    -4.1984911575469575    2.4239999999999995    0.0000000000000000
     0.0000000000000000    0.0000000000000000   15.0000000000000000
   B    C 
     4    11
Direct
  0.0041481319738373  0.0026711475631679  0.1197359579305356
  0.3563282717711860  0.0028428696871296  0.0976507167625726
  0.0041897463209528  0.3549826139866900  0.0976826414337232
  0.6520082381990639  0.6505724109275718  0.0976603116511046
  0.3264455894427517  0.3249639651306033  0.1003029852158629
  0.6821041943433424  0.0028179173811558  0.1003003064075409
  0.0041686666996378  0.6805011441867941  0.1002714088949200
  0.0833251016862120  0.4167215379126269  0.3364650146571747
  0.2500861751447166  0.2501283346096444  0.3365127125231185
  0.0834135343894888  0.9167300982242652  0.3364594094583175
  0.2501463434725846  0.7499785706083493  0.3364518872817123
  0.5833094614159097  0.4166562000968255  0.3364446066477233
  0.7499671576137856  0.2500012419413821  0.3364641532061931
  0.5832138688410933  0.9166414438799707  0.3365011788866825
  0.7497728520187591  0.7498911705305202  0.3364760423761544
 
  0.00000000E+00  0.00000000E+00  0.00000000E+00
  0.00000000E+00  0.00000000E+00  0.00000000E+00
  0.00000000E+00  0.00000000E+00  0.00000000E+00
  0.00000000E+00  0.00000000E+00  0.00000000E+00
  0.00000000E+00  0.00000000E+00  0.00000000E+00
  0.00000000E+00  0.00000000E+00  0.00000000E+00
  0.00000000E+00  0.00000000E+00  0.00000000E+00
  0.00000000E+00  0.00000000E+00  0.00000000E+00
  0.00000000E+00  0.00000000E+00  0.00000000E+00
  0.00000000E+00  0.00000000E+00  0.00000000E+00
  0.00000000E+00  0.00000000E+00  0.00000000E+00
  0.00000000E+00  0.00000000E+00  0.00000000E+00
  0.00000000E+00  0.00000000E+00  0.00000000E+00
  0.00000000E+00  0.00000000E+00  0.00000000E+00
  0.00000000E+00  0.00000000E+00  0.00000000E+00
