Graphene-B4C3 Bridge with lattice parame
   1.00000000000000     
     4.1984911575469575    2.4239999999999995    0.0000000000000000
    -4.1984911575469575    2.4239999999999995    0.0000000000000000
     0.0000000000000000    0.0000000000000000   15.0000000000000000
   B    C 
     4    11
Direct
  0.0045213618740364  0.0025346313179251  0.1042178911000062
  0.3594116451117929  0.0023315750470655  0.1008292050892542
  0.0047126055409121  0.3572903796595713  0.1012759998112551
  0.6500210849467449  0.6473092873252031  0.1011476915492445
  0.3285786544622721  0.3261510955280181  0.1013810556536308
  0.6807310243514068  0.0021934944674647  0.1018208205362625
  0.0046621967545909  0.6785655604688819  0.1014898147016731
  0.0828706224482516  0.4170445980965303  0.3366045627390555
  0.2495852408647928  0.2503963829933757  0.3367907644374794
  0.0828911557889964  0.9170407743183560  0.3366997106435713
  0.2496010915067721  0.7503594682575130  0.3365631559722597
  0.5829280833758750  0.4170270370305091  0.3366011185477575
  0.7495759533002362  0.2503249734578068  0.3365542099526549
  0.5829500289514971  0.9171424269121750  0.3367605991102952
  0.7495865840551446  0.7503889817863016  0.3366427334889359
 
  0.00000000E+00  0.00000000E+00  0.00000000E+00
  0.00000000E+00  0.00000000E+00  0.00000000E+00
  0.00000000E+00  0.00000000E+00  0.00000000E+00
  0.00000000E+00  0.00000000E+00  0.00000000E+00
  0.00000000E+00  0.00000000E+00  0.00000000E+00
  0.00000000E+00  0.00000000E+00  0.00000000E+00
  0.00000000E+00  0.00000000E+00  0.00000000E+00
  0.00000000E+00  0.00000000E+00  0.00000000E+00
  0.00000000E+00  0.00000000E+00  0.00000000E+00
  0.00000000E+00  0.00000000E+00  0.00000000E+00
  0.00000000E+00  0.00000000E+00  0.00000000E+00
  0.00000000E+00  0.00000000E+00  0.00000000E+00
  0.00000000E+00  0.00000000E+00  0.00000000E+00
  0.00000000E+00  0.00000000E+00  0.00000000E+00
  0.00000000E+00  0.00000000E+00  0.00000000E+00
