Graphene-B4C3 Hollow 1 with lattice para
   1.00000000000000     
     4.1984911575469575    2.4239999999999995    0.0000000000000000
    -4.1984911575469575    2.4239999999999995    0.0000000000000000
     0.0000000000000000    0.0000000000000000   15.0000000000000000
   B    C 
     4    11
Direct
  0.0044948146681052  0.0025592530203522  0.1048885768951373
  0.3592110747019067  0.0023745276617072  0.1006175634188618
  0.0046934761947124  0.3572584784213558  0.1009627401484330
  0.6500006778071389  0.6476131461377082  0.1008517011887610
  0.3284830967241697  0.3262591576368905  0.1013849775044312
  0.6806836178432625  0.0022896412855246  0.1016760518318150
  0.0045703852987387  0.6786069078785720  0.1014198349466515
  0.1107300428383917  0.3891920952470749  0.3374620287333336
  0.2773902735522363  0.2224638414397124  0.3375894495577115
  0.1107559243041027  0.8892444251417354  0.3375520749941848
  0.2774213964553650  0.7225274230568038  0.3374254891027756
  0.6107541020897107  0.3892203910585739  0.3374367726278209
  0.7774461502787449  0.2225183598572111  0.3374596263841430
  0.6107735161733531  0.8892145739443639  0.3375549764611619
  0.7774410066256113  0.7225362226568824  0.3374974695380992
 
  0.00000000E+00  0.00000000E+00  0.00000000E+00
  0.00000000E+00  0.00000000E+00  0.00000000E+00
  0.00000000E+00  0.00000000E+00  0.00000000E+00
  0.00000000E+00  0.00000000E+00  0.00000000E+00
  0.00000000E+00  0.00000000E+00  0.00000000E+00
  0.00000000E+00  0.00000000E+00  0.00000000E+00
  0.00000000E+00  0.00000000E+00  0.00000000E+00
  0.00000000E+00  0.00000000E+00  0.00000000E+00
  0.00000000E+00  0.00000000E+00  0.00000000E+00
  0.00000000E+00  0.00000000E+00  0.00000000E+00
  0.00000000E+00  0.00000000E+00  0.00000000E+00
  0.00000000E+00  0.00000000E+00  0.00000000E+00
  0.00000000E+00  0.00000000E+00  0.00000000E+00
  0.00000000E+00  0.00000000E+00  0.00000000E+00
  0.00000000E+00  0.00000000E+00  0.00000000E+00
