Graphene-B4C3 Hollow 1 with lattice para
   1.00000000000000     
     4.1984911575469575    2.4239999999999995    0.0000000000000000
    -4.1984911575469575    2.4239999999999995    0.0000000000000000
     0.0000000000000000    0.0000000000000000   15.0000000000000000
   B    C 
     4    11
Direct
  0.0041607480191584  0.0026840819981711  0.1196848702036241
  0.3563263116330987  0.0028232167511575  0.0976593749659249
  0.0042136817236270  0.3549961195158235  0.0976897696982605
  0.6519940268120230  0.6505815279147887  0.0976670805419084
  0.3263856022714141  0.3249366821500237  0.1003090826492392
  0.6821137234539864  0.0027878082025461  0.1003015978038859
  0.0041955141274420  0.6805493620810706  0.1002738109379288
  0.1110743191956837  0.3889406023541558  0.3372733847143105
  0.2778470059221231  0.2222841286495313  0.3373107856974480
  0.1112049616413162  0.8889548065384842  0.3372790278836899
  0.2778741599132426  0.7222200527563299  0.3372356781826758
  0.6110907559427453  0.3888622120650727  0.3372331891024116
  0.7777568367153698  0.2222450021752155  0.3372781330710699
  0.6110174144350435  0.8888635140546142  0.3373051562152063
  0.7775944937492762  0.7221493272374834  0.3372783916657373
 
  0.00000000E+00  0.00000000E+00  0.00000000E+00
  0.00000000E+00  0.00000000E+00  0.00000000E+00
  0.00000000E+00  0.00000000E+00  0.00000000E+00
  0.00000000E+00  0.00000000E+00  0.00000000E+00
  0.00000000E+00  0.00000000E+00  0.00000000E+00
  0.00000000E+00  0.00000000E+00  0.00000000E+00
  0.00000000E+00  0.00000000E+00  0.00000000E+00
  0.00000000E+00  0.00000000E+00  0.00000000E+00
  0.00000000E+00  0.00000000E+00  0.00000000E+00
  0.00000000E+00  0.00000000E+00  0.00000000E+00
  0.00000000E+00  0.00000000E+00  0.00000000E+00
  0.00000000E+00  0.00000000E+00  0.00000000E+00
  0.00000000E+00  0.00000000E+00  0.00000000E+00
  0.00000000E+00  0.00000000E+00  0.00000000E+00
  0.00000000E+00  0.00000000E+00  0.00000000E+00
