Graphene-B4C3 Bridge with lattice parame
   1.00000000000000     
     4.2158116656226472    2.4340000000000002    0.0000000000000000
    -4.2158116656226472    2.4340000000000002    0.0000000000000000
     0.0000000000000000    0.0000000000000000   15.0000000000000000
   B    C 
     4    11
Direct
  0.0316760731472752 -0.0231752125066437  0.1036726992316498
  0.3865350436410342 -0.0234195057077149  0.1008042995951093
  0.0319097476332876  0.3314252744575621  0.1010076043140833
  0.6773902755915070  0.6215065679435313  0.1009699653893398
  0.3556801401518878  0.2998038240713983  0.1011700173419552
  0.7083993887181529 -0.0231866511596282  0.1013586696768485
  0.0313094201986422  0.6529109739530630  0.1012340836331550
  0.0590623431673627  0.4396209082852754  0.3368132666320735
  0.2257908624686029  0.2729566510838035  0.3370359269915426
  0.0591160282965188  0.9396294542366352  0.3368797304267788
  0.2258746503683574  0.7729115227437554  0.3369380513066331
  0.5591930610810998  0.4396406116770296  0.3368698821856037
  0.7258198806693823  0.2728990435958638  0.3367878090543573
  0.5591214724919452  0.9396865502964913  0.3368766050683434
  0.7257489457082659  0.7728906536962754  0.3369607224858626
 
  0.00000000E+00  0.00000000E+00  0.00000000E+00
  0.00000000E+00  0.00000000E+00  0.00000000E+00
  0.00000000E+00  0.00000000E+00  0.00000000E+00
  0.00000000E+00  0.00000000E+00  0.00000000E+00
  0.00000000E+00  0.00000000E+00  0.00000000E+00
  0.00000000E+00  0.00000000E+00  0.00000000E+00
  0.00000000E+00  0.00000000E+00  0.00000000E+00
  0.00000000E+00  0.00000000E+00  0.00000000E+00
  0.00000000E+00  0.00000000E+00  0.00000000E+00
  0.00000000E+00  0.00000000E+00  0.00000000E+00
  0.00000000E+00  0.00000000E+00  0.00000000E+00
  0.00000000E+00  0.00000000E+00  0.00000000E+00
  0.00000000E+00  0.00000000E+00  0.00000000E+00
  0.00000000E+00  0.00000000E+00  0.00000000E+00
  0.00000000E+00  0.00000000E+00  0.00000000E+00
