Graphene-B4C3 Bridge with lattice parame
   1.00000000000000     
     4.1941610305280363    2.4215000000000000    0.0000000000000000
    -4.1941610305280363    2.4215000000000000    0.0000000000000000
     0.0000000000000000    0.0000000000000000   15.0000000000000000
   B    C 
     4    11
Direct
  0.0223123104876704 -0.0142573886878945  0.1050290239486818
  0.3773777090018281 -0.0141985059754010  0.1009211391792999
  0.0222718630965289  0.3405875933980476  0.1010992398566767
  0.6673939253540345  0.6303393989263409  0.1010485325839564
  0.3459687961338709  0.3090123917209038  0.1014065036920216
  0.6988151688350366 -0.0143148269825002  0.1014560787446802
  0.0219042441534814  0.6617556845354009  0.1014567723849492
  0.0674772671459445  0.4317143500477393  0.3366094341752997
  0.2341293459601510  0.2650728426649508  0.3366917989552328
  0.0674573014556229  0.9317429750324691  0.3366272655362511
  0.2341665974348698  0.7650365131040514  0.3365912794069009
  0.5675099432855911  0.4317659159879243  0.3366279348215689
  0.7341954573667822  0.2650648839346537  0.3365127706748708
  0.5674970255224114  0.9317347525990252  0.3367047681996043
  0.7341503780994982  0.7650440863609855  0.3365967911733429
 
  0.00000000E+00  0.00000000E+00  0.00000000E+00
  0.00000000E+00  0.00000000E+00  0.00000000E+00
  0.00000000E+00  0.00000000E+00  0.00000000E+00
  0.00000000E+00  0.00000000E+00  0.00000000E+00
  0.00000000E+00  0.00000000E+00  0.00000000E+00
  0.00000000E+00  0.00000000E+00  0.00000000E+00
  0.00000000E+00  0.00000000E+00  0.00000000E+00
  0.00000000E+00  0.00000000E+00  0.00000000E+00
  0.00000000E+00  0.00000000E+00  0.00000000E+00
  0.00000000E+00  0.00000000E+00  0.00000000E+00
  0.00000000E+00  0.00000000E+00  0.00000000E+00
  0.00000000E+00  0.00000000E+00  0.00000000E+00
  0.00000000E+00  0.00000000E+00  0.00000000E+00
  0.00000000E+00  0.00000000E+00  0.00000000E+00
  0.00000000E+00  0.00000000E+00  0.00000000E+00
