Graphene-B4C3 Top with lattice parameter
   1.00000000000000     
     4.1958930813356048    2.4224999999999999    0.0000000000000000
    -4.1958930813356048    2.4224999999999999    0.0000000000000000
     0.0000000000000000    0.0000000000000000   15.0000000000000000
   B    C 
     4    11
Direct
  0.0040640437328553  0.0027023218529260  0.1013209995474962
  0.3592526904432738  0.0029710843303431  0.1005860913192604
  0.0037865860737550  0.3576175478095485  0.1005867333117390
  0.6491445049747330  0.6475090724838929  0.1005833587441739
  0.3277974394766546  0.3261516252769973  0.1005992699859847
  0.6806084847701743  0.0029793021005684  0.1005974432891791
  0.0037732153664215  0.6789619248473547  0.1005943929912675
  0.0001290090241162  0.5000580108541155  0.3348326361441791
  0.1667788403753824  0.3334562971411289  0.3348697775329332
  0.0001116448842153  0.0000680225512300  0.3347974405235555
  0.1668202830626875  0.8333942367911421  0.3348734975979414
  0.5001214688434504  0.5000966020488610  0.3348353422593447
  0.6667729519108326  0.3334022709686830  0.3347349510639530
  0.5000825167020726  0.0000499634673101  0.3348308938914755
  0.6667169870260683  0.8333490508092245  0.3348698384641984
 
  0.00000000E+00  0.00000000E+00  0.00000000E+00
  0.00000000E+00  0.00000000E+00  0.00000000E+00
  0.00000000E+00  0.00000000E+00  0.00000000E+00
  0.00000000E+00  0.00000000E+00  0.00000000E+00
  0.00000000E+00  0.00000000E+00  0.00000000E+00
  0.00000000E+00  0.00000000E+00  0.00000000E+00
  0.00000000E+00  0.00000000E+00  0.00000000E+00
  0.00000000E+00  0.00000000E+00  0.00000000E+00
  0.00000000E+00  0.00000000E+00  0.00000000E+00
  0.00000000E+00  0.00000000E+00  0.00000000E+00
  0.00000000E+00  0.00000000E+00  0.00000000E+00
  0.00000000E+00  0.00000000E+00  0.00000000E+00
  0.00000000E+00  0.00000000E+00  0.00000000E+00
  0.00000000E+00  0.00000000E+00  0.00000000E+00
  0.00000000E+00  0.00000000E+00  0.00000000E+00
