Graphene-B4C3 Hollow 2 with lattice para
   1.00000000000000     
     4.1941610305280363    2.4215000000000000    0.0000000000000000
    -4.1941610305280363    2.4215000000000000    0.0000000000000000
     0.0000000000000000    0.0000000000000000   15.0000000000000000
   B    C 
     4    11
Direct
  0.0043941313954212  0.0029187478659707  0.0996184647336988
  0.3595454513216940  0.0029258144348503  0.1011034051658954
  0.0044053875137381  0.3580720181181316  0.1011056118085190
  0.6492514719863337  0.6477725909709769  0.1011103532971398
  0.3280980508932766  0.3266229891357475  0.1008704900781840
  0.6807038355232776  0.0029202585742727  0.1008683953366920
  0.0043998007489213  0.6792288150093974  0.1008685500275411
  0.1664588370121224  0.3332031355279830  0.3382385242551069
  0.3331435931806386  0.1665179789777752  0.3382403104411774
  0.1664967180214110  0.8332246382021210  0.3382426034168101
  0.3331451938095188  0.6665390195056803  0.3381309108870913
  0.6664786907646562  0.3332041198955611  0.3381308944441792
  0.8331644088416015  0.1665558954483349  0.3382419881547630
  0.6664798592040450  0.8331881935084559  0.3382383117210718
  0.8331285697833510  0.6665397848247525  0.3382371862321569
 
  0.00000000E+00  0.00000000E+00  0.00000000E+00
  0.00000000E+00  0.00000000E+00  0.00000000E+00
  0.00000000E+00  0.00000000E+00  0.00000000E+00
  0.00000000E+00  0.00000000E+00  0.00000000E+00
  0.00000000E+00  0.00000000E+00  0.00000000E+00
  0.00000000E+00  0.00000000E+00  0.00000000E+00
  0.00000000E+00  0.00000000E+00  0.00000000E+00
  0.00000000E+00  0.00000000E+00  0.00000000E+00
  0.00000000E+00  0.00000000E+00  0.00000000E+00
  0.00000000E+00  0.00000000E+00  0.00000000E+00
  0.00000000E+00  0.00000000E+00  0.00000000E+00
  0.00000000E+00  0.00000000E+00  0.00000000E+00
  0.00000000E+00  0.00000000E+00  0.00000000E+00
  0.00000000E+00  0.00000000E+00  0.00000000E+00
  0.00000000E+00  0.00000000E+00  0.00000000E+00
