Graphene-Borophene Top with lattice para
   1.00000000000000     
     4.3820885431492567    2.5299999999999985    0.0000000000000000
    -4.3820885431492567    2.5299999999999985    0.0000000000000000
     0.0000000000000000    0.0000000000000000   15.0000000000000000
   B    C 
     8     8
Direct
  0.6682200476391436  0.0006704487202174  0.1646870390567725
  0.3324494010810764  0.0006704487202174  0.1646870390567725
 -0.0006704487202174  0.3317789523608592  0.1646870390567725
 -0.0006704487202174  0.6675495989189263  0.1646870390567725
  0.3324494010810763  0.3317789523608592  0.1646870390567725
  0.6682200476391437  0.6675495989189263  0.1646870390567725
  0.6666659999999993  0.3333330000000032  0.1761761735680512
  0.3333330000000032  0.6666659999999993  0.1554781081590662
  0.1666327771292399  0.3332665542584843  0.4028454131451565
  0.3333110528132250  0.1666550264066102  0.4027160032337433
  0.1666327771292399  0.8333662228707631  0.4028454131451565
  0.3333330000000032  0.6666659999999993  0.4031266551320402
  0.6666659999999993  0.3333330000000032  0.4022792463302009
  0.8333439735933925  0.1666550264066102  0.4027160032337433
  0.6667324457415176  0.8333662228707631  0.4028454131451565
  0.8333439735933925  0.6666879471867775  0.4027160032337433
 
  0.00000000E+00  0.00000000E+00  0.00000000E+00
  0.00000000E+00  0.00000000E+00  0.00000000E+00
  0.00000000E+00  0.00000000E+00  0.00000000E+00
  0.00000000E+00  0.00000000E+00  0.00000000E+00
  0.00000000E+00  0.00000000E+00  0.00000000E+00
  0.00000000E+00  0.00000000E+00  0.00000000E+00
  0.00000000E+00  0.00000000E+00  0.00000000E+00
  0.00000000E+00  0.00000000E+00  0.00000000E+00
  0.00000000E+00  0.00000000E+00  0.00000000E+00
  0.00000000E+00  0.00000000E+00  0.00000000E+00
  0.00000000E+00  0.00000000E+00  0.00000000E+00
  0.00000000E+00  0.00000000E+00  0.00000000E+00
  0.00000000E+00  0.00000000E+00  0.00000000E+00
  0.00000000E+00  0.00000000E+00  0.00000000E+00
  0.00000000E+00  0.00000000E+00  0.00000000E+00
  0.00000000E+00  0.00000000E+00  0.00000000E+00
