Graphene-B4C3 Hollow 1 with lattice para
   1.00000000000000     
     4.1569219381653042    2.3999999999999995    0.0000000000000000
    -4.1569219381653042    2.3999999999999995    0.0000000000000000
     0.0000000000000000    0.0000000000000000   15.0000000000000000
   B    C 
     4    11
Direct
  0.0180208797187706 -0.0096489755692335  0.0958884729023000
  0.3724784937651675 -0.0097294697824514  0.1045908784618956
  0.0179921424635215  0.3448384437822045  0.1044831836089894
  0.6634583143225165  0.6355922358791450  0.1045148218256858
  0.3419788695354103  0.3141034457130337  0.1032689254573362
  0.6940855639132758 -0.0097137338660092  0.1034814131517164
  0.0180887247392390  0.6664941192974915  0.1032143061400212
  0.0989650503675544  0.3998115953729878  0.3364845934252284
  0.2656439855598184  0.2331125733352907  0.3366907273200083
  0.0990168036357827  0.8998387922704891  0.3365049580518828
  0.2657786214066093  0.7332209438470542  0.3364733964821258
  0.5990654111520801  0.3998380808059880  0.3364212850112640
  0.7656689576034744  0.2331594832629889  0.3365567731102401
  0.5989775317450006  0.8997648586128719  0.3366690446678253
  0.7656302056273269  0.7331960514826169  0.3365365537168010
 
  0.00000000E+00  0.00000000E+00  0.00000000E+00
  0.00000000E+00  0.00000000E+00  0.00000000E+00
  0.00000000E+00  0.00000000E+00  0.00000000E+00
  0.00000000E+00  0.00000000E+00  0.00000000E+00
  0.00000000E+00  0.00000000E+00  0.00000000E+00
  0.00000000E+00  0.00000000E+00  0.00000000E+00
  0.00000000E+00  0.00000000E+00  0.00000000E+00
  0.00000000E+00  0.00000000E+00  0.00000000E+00
  0.00000000E+00  0.00000000E+00  0.00000000E+00
  0.00000000E+00  0.00000000E+00  0.00000000E+00
  0.00000000E+00  0.00000000E+00  0.00000000E+00
  0.00000000E+00  0.00000000E+00  0.00000000E+00
  0.00000000E+00  0.00000000E+00  0.00000000E+00
  0.00000000E+00  0.00000000E+00  0.00000000E+00
  0.00000000E+00  0.00000000E+00  0.00000000E+00
