Graphene-BC3 Bridge with lattice paramet
   1.00000000000000     
     4.2868257487329711    2.4750000000000001    0.0000000000000000
    -4.2868257487329711    2.4750000000000001    0.0000000000000000
     0.0000000000000000    0.0000000000000000   15.0000000000000000
   B    C 
     2    14
Direct
  0.3224846899708310  0.6852151300977541  0.0997950994490687
  0.6557909438847587  0.3520787437937467  0.0993883709161458
  0.1493629933111721  0.3393744633224104  0.0936891883448726
  0.3093520486061547  0.1789511767343858  0.1049837482887600
  0.1491622628775124  0.8586903456053102  0.1106842037401854
  0.8288673007766036  0.1788763558408311  0.0879999042816656
  0.6684632138889862  0.8584859504722503  0.0937986907212337
  0.8289253054714584  0.6983830671165248  0.1050670719065435
  0.2659299222280257  0.2337091152029102  0.3269568871627800
  0.4325990631446629  0.0670991457688424  0.3270109251017230
  0.2659185584094426  0.7337702501173681  0.3269533756478503
  0.4326477822485470  0.5670459294021457  0.3268727604636907
  0.7659177261674130  0.2337686594257148  0.3267892388655173
  0.9326666299891010  0.0670286549246508  0.3267148535366656
  0.7659772414801183  0.7337571333646068  0.3269573646871498
  0.9325929842119179  0.5670912121438718  0.3270049835528055
 
  0.00000000E+00  0.00000000E+00  0.00000000E+00
  0.00000000E+00  0.00000000E+00  0.00000000E+00
  0.00000000E+00  0.00000000E+00  0.00000000E+00
  0.00000000E+00  0.00000000E+00  0.00000000E+00
  0.00000000E+00  0.00000000E+00  0.00000000E+00
  0.00000000E+00  0.00000000E+00  0.00000000E+00
  0.00000000E+00  0.00000000E+00  0.00000000E+00
  0.00000000E+00  0.00000000E+00  0.00000000E+00
  0.00000000E+00  0.00000000E+00  0.00000000E+00
  0.00000000E+00  0.00000000E+00  0.00000000E+00
  0.00000000E+00  0.00000000E+00  0.00000000E+00
  0.00000000E+00  0.00000000E+00  0.00000000E+00
  0.00000000E+00  0.00000000E+00  0.00000000E+00
  0.00000000E+00  0.00000000E+00  0.00000000E+00
  0.00000000E+00  0.00000000E+00  0.00000000E+00
  0.00000000E+00  0.00000000E+00  0.00000000E+00
