Graphene-BC3 Hollow with lattice paramet
   1.00000000000000     
     4.3820885431492584    2.5299999999999994    0.0000000000000000
    -4.3820885431492584    2.5299999999999994    0.0000000000000000
     0.0000000000000000    0.0000000000000000   15.0000000000000000
   B    C 
     2    14
Direct
  0.3382795194589048  0.6691381046142337  0.1004002963945569
  0.6716146097331677  0.3358057169895212  0.1000797661736963
  0.1644648169203310  0.3215111811260218  0.1000913477944295
  0.3239090366486034  0.1619529869057009  0.1000971223161690
  0.1644644163283728  0.8429518925733356  0.1000915732082909
  0.8454615809806834  0.1619522042026411  0.1000884958804873
  0.6858993135496534  0.8429489493478535  0.1000830308633824
  0.8454616549392450  0.6835074100514716  0.1000885896142540
  0.3334056981079702  0.1667034747340740  0.3254573392165336
  0.5000948094219416  0.0001133508782640  0.3254333115921167
  0.3333861264212962  0.6666936576725138  0.3251495015358647
  0.5000948232037782  0.4999827157953621  0.3254333229906208
  0.8333809786019474  0.1667049430654391  0.3254526333829354
  0.0000564547793452  0.0000288874355842  0.3254337931409564
  0.8333809914707861  0.6666773066550301  0.3254526353553078
  0.9999705027673083  0.4999858846196484  0.3254339072070697
 
  0.00000000E+00  0.00000000E+00  0.00000000E+00
  0.00000000E+00  0.00000000E+00  0.00000000E+00
  0.00000000E+00  0.00000000E+00  0.00000000E+00
  0.00000000E+00  0.00000000E+00  0.00000000E+00
  0.00000000E+00  0.00000000E+00  0.00000000E+00
  0.00000000E+00  0.00000000E+00  0.00000000E+00
  0.00000000E+00  0.00000000E+00  0.00000000E+00
  0.00000000E+00  0.00000000E+00  0.00000000E+00
  0.00000000E+00  0.00000000E+00  0.00000000E+00
  0.00000000E+00  0.00000000E+00  0.00000000E+00
  0.00000000E+00  0.00000000E+00  0.00000000E+00
  0.00000000E+00  0.00000000E+00  0.00000000E+00
  0.00000000E+00  0.00000000E+00  0.00000000E+00
  0.00000000E+00  0.00000000E+00  0.00000000E+00
  0.00000000E+00  0.00000000E+00  0.00000000E+00
  0.00000000E+00  0.00000000E+00  0.00000000E+00
