Graphene-BC3 Bridge with lattice paramet
   1.00000000000000     
     4.4167295593006353    2.5499999999999989    0.0000000000000000
    -4.4167295593006353    2.5499999999999989    0.0000000000000000
     0.0000000000000000    0.0000000000000000   15.0000000000000000
   B    C 
     2    14
Direct
  0.3178459637170454  0.6915012638511217  0.1003623164435967
  0.6512038798945863  0.3581556222294829  0.1001159364510102
  0.1437823498691948  0.3433769146385044  0.1000009854654447
  0.3029683506611267  0.1840784070179703  0.1000919745424063
  0.1437328850369360  0.8656229777168917  0.1001261325313445
  0.8252748411416916  0.1840733519032925  0.0999728885811470
  0.6659740596671192  0.8655717855281287  0.1000053234878700
  0.8252733220907353  0.7063874198719992  0.1000962205210951
  0.2704923344213194  0.2276033840779935  0.3263059203751437
  0.4371189510156269  0.0610295749880566  0.3262769855395102
  0.2704770801686307  0.7276695990093525  0.3260236768988395
  0.4372060385605439  0.5609374546211944  0.3262266226617551
  0.7704776390156397  0.2276659350147380  0.3262112707473923
  0.9371711072205194  0.0609733604112294  0.3262752278251402
  0.7705460917720474  0.7276565075205952  0.3263045713553140
  0.9371137724139421  0.5610217749327724  0.3262706132396473
 
  0.00000000E+00  0.00000000E+00  0.00000000E+00
  0.00000000E+00  0.00000000E+00  0.00000000E+00
  0.00000000E+00  0.00000000E+00  0.00000000E+00
  0.00000000E+00  0.00000000E+00  0.00000000E+00
  0.00000000E+00  0.00000000E+00  0.00000000E+00
  0.00000000E+00  0.00000000E+00  0.00000000E+00
  0.00000000E+00  0.00000000E+00  0.00000000E+00
  0.00000000E+00  0.00000000E+00  0.00000000E+00
  0.00000000E+00  0.00000000E+00  0.00000000E+00
  0.00000000E+00  0.00000000E+00  0.00000000E+00
  0.00000000E+00  0.00000000E+00  0.00000000E+00
  0.00000000E+00  0.00000000E+00  0.00000000E+00
  0.00000000E+00  0.00000000E+00  0.00000000E+00
  0.00000000E+00  0.00000000E+00  0.00000000E+00
  0.00000000E+00  0.00000000E+00  0.00000000E+00
  0.00000000E+00  0.00000000E+00  0.00000000E+00
