Graphene-B4C3 Hollow 1 with lattice para
   1.00000000000000     
     4.1915629543166828    2.4199999999999999    0.0000000000000000
    -4.1915629543166828    2.4199999999999999    0.0000000000000000
     0.0000000000000000    0.0000000000000000   15.0000000000000000
   B    C 
     4    11
Direct
  0.0044766172448132  0.0025869989394054  0.1057569841606541
  0.3590508840456018  0.0023688345031593  0.1004474722125376
  0.0046892060936167  0.3571105257171515  0.1008162562938930
  0.6501601110458267  0.6477669671715789  0.1006984181725694
  0.3286011621143603  0.3264012373227864  0.1012942445137431
  0.6805193196254173  0.0022809344012961  0.1016030150006814
  0.0045522554671560  0.6785185485317875  0.1013279527411773
  0.1107195203591874  0.3892011003460876  0.3374485647443800
  0.2774028274726850  0.2224906617630734  0.3375973775855786
  0.1107075295230083  0.8892045698046254  0.3375392905811146
  0.2774245143184424  0.7224538251976412  0.3373719331393416
  0.6107912288422208  0.3892258192572706  0.3373870736101469
  0.7774442161669581  0.2224248803940438  0.3374446789061209
  0.6108303403520132  0.8893317821115242  0.3375653425273550
  0.7774798228842433  0.7225117589830365  0.3374807291440278
 
  0.00000000E+00  0.00000000E+00  0.00000000E+00
  0.00000000E+00  0.00000000E+00  0.00000000E+00
  0.00000000E+00  0.00000000E+00  0.00000000E+00
  0.00000000E+00  0.00000000E+00  0.00000000E+00
  0.00000000E+00  0.00000000E+00  0.00000000E+00
  0.00000000E+00  0.00000000E+00  0.00000000E+00
  0.00000000E+00  0.00000000E+00  0.00000000E+00
  0.00000000E+00  0.00000000E+00  0.00000000E+00
  0.00000000E+00  0.00000000E+00  0.00000000E+00
  0.00000000E+00  0.00000000E+00  0.00000000E+00
  0.00000000E+00  0.00000000E+00  0.00000000E+00
  0.00000000E+00  0.00000000E+00  0.00000000E+00
  0.00000000E+00  0.00000000E+00  0.00000000E+00
  0.00000000E+00  0.00000000E+00  0.00000000E+00
  0.00000000E+00  0.00000000E+00  0.00000000E+00
