Graphene-B4C3 Hollow 1 with lattice para
   1.00000000000000     
     4.1915629543166828    2.4199999999999999    0.0000000000000000
    -4.1915629543166828    2.4199999999999999    0.0000000000000000
     0.0000000000000000    0.0000000000000000   15.0000000000000000
   B    C 
     4    11
Direct
  0.0041711502747584  0.0027219840858014  0.1185878417870479
  0.3568591440920432  0.0027558775813444  0.0979617834491556
  0.0042088819435238  0.3555259440887788  0.0980457806918739
  0.6515283138438939  0.6499827938096633  0.0980085445388397
  0.3266369853938325  0.3250631037997961  0.1002824984675484
  0.6819515064047261  0.0027831155527889  0.1003167028082765
  0.0042401340960131  0.6803466331627421  0.1002550653803672
  0.1110930297529334  0.3888777382634102  0.3372884803850943
  0.2776761357147411  0.2222480941247251  0.3373838186923064
  0.1109759964939664  0.8888579630102496  0.3373053585789355
  0.2776575643741875  0.7222647345411042  0.3371891476205272
  0.6110904719985999  0.3889243810035575  0.3371853388151225
  0.7777371135370186  0.2222254982763743  0.3372981958124864
  0.6111523144458307  0.8889738177123735  0.3373706368443923
  0.7778708131894818  0.7223267654317587  0.3373001394613476
 
  0.00000000E+00  0.00000000E+00  0.00000000E+00
  0.00000000E+00  0.00000000E+00  0.00000000E+00
  0.00000000E+00  0.00000000E+00  0.00000000E+00
  0.00000000E+00  0.00000000E+00  0.00000000E+00
  0.00000000E+00  0.00000000E+00  0.00000000E+00
  0.00000000E+00  0.00000000E+00  0.00000000E+00
  0.00000000E+00  0.00000000E+00  0.00000000E+00
  0.00000000E+00  0.00000000E+00  0.00000000E+00
  0.00000000E+00  0.00000000E+00  0.00000000E+00
  0.00000000E+00  0.00000000E+00  0.00000000E+00
  0.00000000E+00  0.00000000E+00  0.00000000E+00
  0.00000000E+00  0.00000000E+00  0.00000000E+00
  0.00000000E+00  0.00000000E+00  0.00000000E+00
  0.00000000E+00  0.00000000E+00  0.00000000E+00
  0.00000000E+00  0.00000000E+00  0.00000000E+00
