Graphene-BC3 Bridge with lattice paramet
   1.00000000000000     
     4.3864186701681822    2.5325000000000002    0.0000000000000000
    -4.3864186701681822    2.5325000000000002    0.0000000000000000
     0.0000000000000000    0.0000000000000000   15.0000000000000000
   B    C 
     2    14
Direct
  0.3289383409313900  0.6792816798516411  0.1006330695511157
  0.6623174266086308  0.3459148444875623  0.1005623375621397
  0.1549065967600862  0.3317037030954150  0.1000498911910902
  0.3144484320587622  0.1723110175593681  0.1004105675910930
  0.1549945895084510  0.8532390017731948  0.1004852732445491
  0.8360872020064586  0.1721329332285473  0.1000204806613001
  0.6765318319678381  0.8533135301996791  0.1001024837789941
  0.8359209328204764  0.6937892276420404  0.1004657743415903
  0.2594291469672122  0.2396584353068486  0.3261248938950813
  0.4260289392079888  0.0731380187370455  0.3260105760328285
  0.2594511367255912  0.7398227362342283  0.3258525334571306
  0.4261959461047582  0.5730748224983616  0.3258753198194894
  0.7594751674398225  0.2397880490639791  0.3259076840948127
  0.9261888752661952  0.0730787799151356  0.3260375080150129
  0.7596167425809893  0.7398457008339069  0.3261257459056135
  0.9261273597120534  0.5732328529063700  0.3260025275248157
 
  0.00000000E+00  0.00000000E+00  0.00000000E+00
  0.00000000E+00  0.00000000E+00  0.00000000E+00
  0.00000000E+00  0.00000000E+00  0.00000000E+00
  0.00000000E+00  0.00000000E+00  0.00000000E+00
  0.00000000E+00  0.00000000E+00  0.00000000E+00
  0.00000000E+00  0.00000000E+00  0.00000000E+00
  0.00000000E+00  0.00000000E+00  0.00000000E+00
  0.00000000E+00  0.00000000E+00  0.00000000E+00
  0.00000000E+00  0.00000000E+00  0.00000000E+00
  0.00000000E+00  0.00000000E+00  0.00000000E+00
  0.00000000E+00  0.00000000E+00  0.00000000E+00
  0.00000000E+00  0.00000000E+00  0.00000000E+00
  0.00000000E+00  0.00000000E+00  0.00000000E+00
  0.00000000E+00  0.00000000E+00  0.00000000E+00
  0.00000000E+00  0.00000000E+00  0.00000000E+00
  0.00000000E+00  0.00000000E+00  0.00000000E+00
