Graphene-B4C3 Hollow 1 with lattice para
   1.00000000000000     
     4.2114815386037252    2.4315000000000002    0.0000000000000000
    -4.2114815386037252    2.4315000000000002    0.0000000000000000
     0.0000000000000000    0.0000000000000000   15.0000000000000000
   B    C 
     4    11
Direct
  0.0384208165286976 -0.0271994904278016  0.1032629509816848
  0.3930076642958765 -0.0272883008059657  0.0989148456384437
  0.0383411742075881  0.3274691565548332  0.0991251515501196
  0.6834277466204156  0.6172870468393102  0.0990534484998462
  0.3615597136838393  0.2957162273694221  0.0995015982901639
  0.7147670742216227 -0.0275014170878683  0.0992404767986337
  0.0378336223321581  0.6488999875518877  0.0995270459617618
  0.0812908062381434  0.4153727275435248  0.3391241703507250
  0.2480374561604135  0.2487381993938945  0.3392175130593164
  0.0814284884080493  0.9154510115210182  0.3391109064260471
  0.2481093035014128  0.7487494441467587  0.3391433891228972
  0.5813681538361309  0.4153212808829406  0.3391227854881063
  0.7479844549216089  0.2486860840121879  0.3391047856869349
  0.5813288252423007  0.9154842467547373  0.3391888882863138
  0.7479442553572923  0.7486922401955882  0.3391413771923272
 
  0.00000000E+00  0.00000000E+00  0.00000000E+00
  0.00000000E+00  0.00000000E+00  0.00000000E+00
  0.00000000E+00  0.00000000E+00  0.00000000E+00
  0.00000000E+00  0.00000000E+00  0.00000000E+00
  0.00000000E+00  0.00000000E+00  0.00000000E+00
  0.00000000E+00  0.00000000E+00  0.00000000E+00
  0.00000000E+00  0.00000000E+00  0.00000000E+00
  0.00000000E+00  0.00000000E+00  0.00000000E+00
  0.00000000E+00  0.00000000E+00  0.00000000E+00
  0.00000000E+00  0.00000000E+00  0.00000000E+00
  0.00000000E+00  0.00000000E+00  0.00000000E+00
  0.00000000E+00  0.00000000E+00  0.00000000E+00
  0.00000000E+00  0.00000000E+00  0.00000000E+00
  0.00000000E+00  0.00000000E+00  0.00000000E+00
  0.00000000E+00  0.00000000E+00  0.00000000E+00
