Graphene-B4C3 Top with lattice parameter
   1.00000000000000     
     4.1958930813356048    2.4224999999999999    0.0000000000000000
    -4.1958930813356048    2.4224999999999999    0.0000000000000000
     0.0000000000000000    0.0000000000000000   15.0000000000000000
   B    C 
     4    11
Direct
  0.0040614142286070  0.0027018311071619  0.1013200563789810
  0.3592379529564776  0.0029668214412865  0.1005799511592914
  0.0037810286772992  0.3576053306483361  0.1005806298589789
  0.6491611697610850  0.6475223451275395  0.1005771435050582
  0.3278059467444444  0.3261635937032186  0.1005938688780010
  0.6805917187025977  0.0029712471807612  0.1005917494117712
  0.0037768773926706  0.6789550609725483  0.1005886436355797
  0.0001260084963437  0.5000593546728691  0.3348384901326169
  0.1667828938097019  0.3334539572997967  0.3348726606071191
  0.0001089706311976  0.0000680962473558  0.3348037760038829
  0.1668234255146274  0.8333968351417086  0.3348763372109899
  0.5001184543055258  0.5000956948114218  0.3348411726910193
  0.6667779587681089  0.3334034773254073  0.3347386558311909
  0.5000811067130148  0.0000503629257427  0.3348367848311380
  0.6667257399649916  0.8333533247281718  0.3348727465310633
 
  0.00000000E+00  0.00000000E+00  0.00000000E+00
  0.00000000E+00  0.00000000E+00  0.00000000E+00
  0.00000000E+00  0.00000000E+00  0.00000000E+00
  0.00000000E+00  0.00000000E+00  0.00000000E+00
  0.00000000E+00  0.00000000E+00  0.00000000E+00
  0.00000000E+00  0.00000000E+00  0.00000000E+00
  0.00000000E+00  0.00000000E+00  0.00000000E+00
  0.00000000E+00  0.00000000E+00  0.00000000E+00
  0.00000000E+00  0.00000000E+00  0.00000000E+00
  0.00000000E+00  0.00000000E+00  0.00000000E+00
  0.00000000E+00  0.00000000E+00  0.00000000E+00
  0.00000000E+00  0.00000000E+00  0.00000000E+00
  0.00000000E+00  0.00000000E+00  0.00000000E+00
  0.00000000E+00  0.00000000E+00  0.00000000E+00
  0.00000000E+00  0.00000000E+00  0.00000000E+00
