Graphene-B4C3 Bridge with lattice parame
   1.00000000000000     
     4.1829027002788370    2.4149999999999991    0.0000000000000000
    -4.1829027002788370    2.4149999999999991    0.0000000000000000
     0.0000000000000000    0.0000000000000000   15.0000000000000000
   B    C 
     4    11
Direct
  0.0136024969650785 -0.0063657160599630  0.0986782838696058
  0.3686949997113572 -0.0063613630266064  0.1020375556268999
  0.0134273513721077  0.3485323192085237  0.1020597298984981
  0.6588405133095049  0.6386784889800814  0.1020636094884304
  0.3376734347110967  0.3172823244641291  0.1014661176881243
  0.6902116526914637 -0.0059732282416400  0.1016795185545229
  0.0139343336427414  0.6700513331418391  0.1015208240915058
  0.0749321436449273  0.4246023660626644  0.3369716531963467
  0.2416097160769716  0.2579487387355197  0.3370360187752376
  0.0749749889982023  0.9246527276986739  0.3369942826451984
  0.2416701601894166  0.7579642150974459  0.3369455250744411
  0.5749533952601328  0.4246087187417872  0.3369847573991434
  0.7416137665610554  0.2579404870787716  0.3369096562787122
  0.5749207226935269  0.9246150065132749  0.3370902230533146
  0.7415676575057375  0.7579242482721956  0.3369415776933553
 
  0.00000000E+00  0.00000000E+00  0.00000000E+00
  0.00000000E+00  0.00000000E+00  0.00000000E+00
  0.00000000E+00  0.00000000E+00  0.00000000E+00
  0.00000000E+00  0.00000000E+00  0.00000000E+00
  0.00000000E+00  0.00000000E+00  0.00000000E+00
  0.00000000E+00  0.00000000E+00  0.00000000E+00
  0.00000000E+00  0.00000000E+00  0.00000000E+00
  0.00000000E+00  0.00000000E+00  0.00000000E+00
  0.00000000E+00  0.00000000E+00  0.00000000E+00
  0.00000000E+00  0.00000000E+00  0.00000000E+00
  0.00000000E+00  0.00000000E+00  0.00000000E+00
  0.00000000E+00  0.00000000E+00  0.00000000E+00
  0.00000000E+00  0.00000000E+00  0.00000000E+00
  0.00000000E+00  0.00000000E+00  0.00000000E+00
  0.00000000E+00  0.00000000E+00  0.00000000E+00
