Graphene-Borophene Bridge with lattice p
   1.00000000000000     
     4.3188686886729952    2.4935000000000000    0.0000000000000000
    -4.3188686886729952    2.4935000000000000    0.0000000000000000
     0.0000000000000000    0.0000000000000000   15.0000000000000000
   B    C 
     8     8
Direct
  0.6776400289525029 -0.0090907058909231  0.1677270208181987
  0.3406747527799427 -0.0089729635436261  0.1667620968103490
  0.0090907058909231  0.3223589710474994  0.1677270208181987
  0.0089729635436261  0.6593242472200601  0.1667620968103490
  0.3405589070070174  0.3225367162087837  0.1665626164226785
  0.6774622837912192  0.6594400929929859  0.1665626164226785
  0.6754464659016154  0.3245525340983875  0.1542714990259483
  0.3419143915006005  0.6580846084994029  0.1799988715672086
  0.2410470776871718  0.2589677301117308  0.4020323214325635
  0.4076701503579592  0.0922605971352661  0.4020239510328907
  0.2409698211571053  0.7590291788428978  0.4020856819314294
  0.4077270128959109  0.5922719871040916  0.4021015769478672
  0.7410147506551724  0.2589842493448302  0.4019670383296967
  0.9077006817929303  0.0922983182070723  0.4018926524978622
  0.7410312698882719  0.7589519223128304  0.4020323214325635
  0.9077384028647366  0.5923288496420439  0.4020239510328907
 
  0.00000000E+00  0.00000000E+00  0.00000000E+00
  0.00000000E+00  0.00000000E+00  0.00000000E+00
  0.00000000E+00  0.00000000E+00  0.00000000E+00
  0.00000000E+00  0.00000000E+00  0.00000000E+00
  0.00000000E+00  0.00000000E+00  0.00000000E+00
  0.00000000E+00  0.00000000E+00  0.00000000E+00
  0.00000000E+00  0.00000000E+00  0.00000000E+00
  0.00000000E+00  0.00000000E+00  0.00000000E+00
  0.00000000E+00  0.00000000E+00  0.00000000E+00
  0.00000000E+00  0.00000000E+00  0.00000000E+00
  0.00000000E+00  0.00000000E+00  0.00000000E+00
  0.00000000E+00  0.00000000E+00  0.00000000E+00
  0.00000000E+00  0.00000000E+00  0.00000000E+00
  0.00000000E+00  0.00000000E+00  0.00000000E+00
  0.00000000E+00  0.00000000E+00  0.00000000E+00
  0.00000000E+00  0.00000000E+00  0.00000000E+00
