Graphene-BC3 Hollow with lattice paramet
   1.00000000000000     
     4.3578398318432949    2.5160000000000000    0.0000000000000000
    -4.3578398318432949    2.5160000000000000    0.0000000000000000
     0.0000000000000000    0.0000000000000000   15.0000000000000000
   B    C 
     2    14
Direct
  0.3383195168723438  0.6691593097284526  0.1003165676027525
  0.6716555134691846  0.3358273119865955  0.1000042182122828
  0.1646847598989174  0.3218895869258813  0.1000155288943129
  0.3243106275784377  0.1621549842758300  0.1000212257622478
  0.1646847699346096  0.8427942643090405  0.1000155507330472
  0.8453213480290629  0.1621530542218903  0.1000168368717845
  0.6855839045910889  0.8427914488060895  0.1000112177238073
  0.8453212690388702  0.6831673466784620  0.1000168691277563
  0.3333636093444364  0.1666817444822225  0.3255313994351554
  0.5000518498810220  1.0000876710724664  0.3255084167982119
  0.3333452195255417  0.6666725505087051  0.3252300091014783
  0.5000518523890597  0.4999640722714100  0.3255084174550349
  0.8333405967422999  0.1666830674989086  0.3255267519301346
  1.0000155601806815  1.0000077253017874  0.3255078255463006
  0.8333405980803729  0.6666574116545181  0.3255267529241769
  0.9999343377774049  0.4999671169444357  0.3255090785481877
 
  0.00000000E+00  0.00000000E+00  0.00000000E+00
  0.00000000E+00  0.00000000E+00  0.00000000E+00
  0.00000000E+00  0.00000000E+00  0.00000000E+00
  0.00000000E+00  0.00000000E+00  0.00000000E+00
  0.00000000E+00  0.00000000E+00  0.00000000E+00
  0.00000000E+00  0.00000000E+00  0.00000000E+00
  0.00000000E+00  0.00000000E+00  0.00000000E+00
  0.00000000E+00  0.00000000E+00  0.00000000E+00
  0.00000000E+00  0.00000000E+00  0.00000000E+00
  0.00000000E+00  0.00000000E+00  0.00000000E+00
  0.00000000E+00  0.00000000E+00  0.00000000E+00
  0.00000000E+00  0.00000000E+00  0.00000000E+00
  0.00000000E+00  0.00000000E+00  0.00000000E+00
  0.00000000E+00  0.00000000E+00  0.00000000E+00
  0.00000000E+00  0.00000000E+00  0.00000000E+00
  0.00000000E+00  0.00000000E+00  0.00000000E+00
