Graphene-BC3 Hollow with lattice paramet
   1.00000000000000     
     4.3950789242060262    2.5375000000000001    0.0000000000000000
    -4.3950789242060262    2.5375000000000001    0.0000000000000000
     0.0000000000000000    0.0000000000000000   15.0000000000000000
   B    C 
     2    14
Direct
  0.3383307443075583  0.6691648888758903  0.1002804400697824
  0.6716653513112821  0.3358325839492956  0.0999680186735809
  0.1644181765653837  0.3213432602006672  0.0999623768234832
  0.3237659389556364  0.1618821358597218  0.0999688138973187
  0.1644182382747816  0.8430749793601477  0.0999623920244344
  0.8456113451086238  0.1618814054649114  0.0999674201103594
  0.6861446436672813  0.8430725738554816  0.0999608712547650
  0.8456112807010143  0.6837284686611439  0.0999674533176517
  0.3333544517232772  0.1666770700857875  0.3255789090784840
  0.5000443663243007  0.0000886977643934  0.3255559426775937
  0.3333345882908354  0.6666671380642506  0.3252722961291387
  0.5000443685854321  0.4999552628401974  0.3255559428926542
  0.8333295432953912  0.1666785702890745  0.3255742511143025
  0.0000052880046535  0.0000024396162872  0.3255607320704411
  0.8333295449684582  0.6666506627750437  0.3255742504481328
  0.9999174632494237  0.4999585290044010  0.3255565560845491
 
  0.00000000E+00  0.00000000E+00  0.00000000E+00
  0.00000000E+00  0.00000000E+00  0.00000000E+00
  0.00000000E+00  0.00000000E+00  0.00000000E+00
  0.00000000E+00  0.00000000E+00  0.00000000E+00
  0.00000000E+00  0.00000000E+00  0.00000000E+00
  0.00000000E+00  0.00000000E+00  0.00000000E+00
  0.00000000E+00  0.00000000E+00  0.00000000E+00
  0.00000000E+00  0.00000000E+00  0.00000000E+00
  0.00000000E+00  0.00000000E+00  0.00000000E+00
  0.00000000E+00  0.00000000E+00  0.00000000E+00
  0.00000000E+00  0.00000000E+00  0.00000000E+00
  0.00000000E+00  0.00000000E+00  0.00000000E+00
  0.00000000E+00  0.00000000E+00  0.00000000E+00
  0.00000000E+00  0.00000000E+00  0.00000000E+00
  0.00000000E+00  0.00000000E+00  0.00000000E+00
  0.00000000E+00  0.00000000E+00  0.00000000E+00
