Graphene-BC3 Bridge with lattice paramet
   1.00000000000000     
     4.3128065108465048    2.4900000000000002    0.0000000000000000
    -4.3128065108465048    2.4900000000000002    0.0000000000000000
     0.0000000000000000    0.0000000000000000   15.0000000000000000
   B    C 
     2    14
Direct
  0.3263677757795579  0.6816407136306374  0.0998010443837789
  0.6596675145001459  0.3483177034862294  0.0998864985984293
  0.1530580169304327  0.3351509820886185  0.0956696908114997
  0.3130307337976928  0.1750365594767539  0.1035300483636552
  0.1528811112369235  0.8550951594927172  0.1074426589525675
  0.8330488316397038  0.1749476072068902  0.0917995074271816
  0.6728262749791519  0.8549058445100964  0.0958494858939821
  0.8330024741315225  0.6949831417624612  0.1037320554705142
  0.2620020311147217  0.2374399643578581  0.3266393263223004
  0.4286222373317842  0.0708253111050182  0.3267385328080283
  0.2619681616513720  0.7375349341353813  0.3265873330335889
  0.4287232268050366  0.5707801427180924  0.3266078165858563
  0.7619978531354391  0.2375008151289787  0.3264781343769626
  0.9287192133392550  0.0707831983547323  0.3265260438199338
  0.7620643980400347  0.7375032780640792  0.3266433510363772
  0.9286788122539327  0.5708799778147791  0.3267351387820015
 
  0.00000000E+00  0.00000000E+00  0.00000000E+00
  0.00000000E+00  0.00000000E+00  0.00000000E+00
  0.00000000E+00  0.00000000E+00  0.00000000E+00
  0.00000000E+00  0.00000000E+00  0.00000000E+00
  0.00000000E+00  0.00000000E+00  0.00000000E+00
  0.00000000E+00  0.00000000E+00  0.00000000E+00
  0.00000000E+00  0.00000000E+00  0.00000000E+00
  0.00000000E+00  0.00000000E+00  0.00000000E+00
  0.00000000E+00  0.00000000E+00  0.00000000E+00
  0.00000000E+00  0.00000000E+00  0.00000000E+00
  0.00000000E+00  0.00000000E+00  0.00000000E+00
  0.00000000E+00  0.00000000E+00  0.00000000E+00
  0.00000000E+00  0.00000000E+00  0.00000000E+00
  0.00000000E+00  0.00000000E+00  0.00000000E+00
  0.00000000E+00  0.00000000E+00  0.00000000E+00
  0.00000000E+00  0.00000000E+00  0.00000000E+00
