Graphene-BC3 Hollow with lattice paramet
   1.00000000000000     
     4.3630359842660011    2.5189999999999997    0.0000000000000000
    -4.3630359842660011    2.5189999999999997    0.0000000000000000
     0.0000000000000000    0.0000000000000000   15.0000000000000000
   B    C 
     2    14
Direct
  0.3383124494846766  0.6691557158968974  0.1003487454033670
  0.6716437392086467  0.3358222438206793  0.1000350637456570
  0.1646336275602195  0.3218087626471232  0.1000430119450009
  0.3242284046976450  0.1621113269382998  0.1000498123776536
  0.1646340002101373  0.8428259986478309  0.1000430432742502
  0.8453564318142003  0.1621119510075217  0.1000429452916358
  0.6856466748228400  0.8428240893095813  0.1000361470544354
  0.8453573525891062  0.6832408187402319  0.1000429788658715
  0.3333750255259723  0.1666876242404236  0.3255047159514134
  0.5000619715606469  0.0000960641146253  0.3254821287897834
  0.3333540503898340  0.6666771421463350  0.3251969021184211
  0.5000619853649573  0.4999663911743832  0.3254821320819947
  0.8333483563759332  0.1666891665118941  0.3254999654804967
  0.0000240325185503  0.0000122613088985  0.3254762575612642
  0.8333483626639411  0.6666594285043542  0.3254999642057105
  0.9999388685460263  0.4999696816576148  0.3254828525197170
 
  0.00000000E+00  0.00000000E+00  0.00000000E+00
  0.00000000E+00  0.00000000E+00  0.00000000E+00
  0.00000000E+00  0.00000000E+00  0.00000000E+00
  0.00000000E+00  0.00000000E+00  0.00000000E+00
  0.00000000E+00  0.00000000E+00  0.00000000E+00
  0.00000000E+00  0.00000000E+00  0.00000000E+00
  0.00000000E+00  0.00000000E+00  0.00000000E+00
  0.00000000E+00  0.00000000E+00  0.00000000E+00
  0.00000000E+00  0.00000000E+00  0.00000000E+00
  0.00000000E+00  0.00000000E+00  0.00000000E+00
  0.00000000E+00  0.00000000E+00  0.00000000E+00
  0.00000000E+00  0.00000000E+00  0.00000000E+00
  0.00000000E+00  0.00000000E+00  0.00000000E+00
  0.00000000E+00  0.00000000E+00  0.00000000E+00
  0.00000000E+00  0.00000000E+00  0.00000000E+00
  0.00000000E+00  0.00000000E+00  0.00000000E+00
