Graphene-BC3 Hollow with lattice paramet
   1.00000000000000     
     4.3630359842660011    2.5189999999999997    0.0000000000000000
    -4.3630359842660011    2.5189999999999997    0.0000000000000000
     0.0000000000000000    0.0000000000000000   15.0000000000000000
   B    C 
     2    14
Direct
  0.3382750785444455  0.6691363655775786  0.1004309712072046
  0.6716115782445511  0.3358048986812172  0.1001164540425614
  0.1646021119279401  0.3217897220001485  0.1001288228821376
  0.3241907161902351  0.1620942326233916  0.1001382422728222
  0.1646023060347529  0.8428100669440359  0.1001291674507749
  0.8453157528984744  0.1620923966621307  0.1001266780657827
  0.6856174902082497  0.8428071955491809  0.1001178580260846
  0.8453161178424727  0.6832208660559639  0.1001270332050874
  0.3334089284683989  0.1667052191615556  0.3254206684701368
  0.5000964235945347  0.0001116975001383  0.3253960847466241
  0.3333888365019744  0.6666951688729983  0.3251144339294950
  0.5000964225449485  0.4999861448951634  0.3253960879935751
  0.8333835728644212  0.1667065804146626  0.3254159328444458
  0.0000595085746133  0.0000304609529325  0.3253955893127208
  0.8333835599735691  0.6666784781817232  0.3254159399633905
  0.9999769289197518  0.4999891725938721  0.3253967022538294
 
  0.00000000E+00  0.00000000E+00  0.00000000E+00
  0.00000000E+00  0.00000000E+00  0.00000000E+00
  0.00000000E+00  0.00000000E+00  0.00000000E+00
  0.00000000E+00  0.00000000E+00  0.00000000E+00
  0.00000000E+00  0.00000000E+00  0.00000000E+00
  0.00000000E+00  0.00000000E+00  0.00000000E+00
  0.00000000E+00  0.00000000E+00  0.00000000E+00
  0.00000000E+00  0.00000000E+00  0.00000000E+00
  0.00000000E+00  0.00000000E+00  0.00000000E+00
  0.00000000E+00  0.00000000E+00  0.00000000E+00
  0.00000000E+00  0.00000000E+00  0.00000000E+00
  0.00000000E+00  0.00000000E+00  0.00000000E+00
  0.00000000E+00  0.00000000E+00  0.00000000E+00
  0.00000000E+00  0.00000000E+00  0.00000000E+00
  0.00000000E+00  0.00000000E+00  0.00000000E+00
  0.00000000E+00  0.00000000E+00  0.00000000E+00
