Graphene-BC3 Hollow with lattice paramet
   1.00000000000000     
     4.3682321366887082    2.5219999999999998    0.0000000000000000
    -4.3682321366887082    2.5219999999999998    0.0000000000000000
     0.0000000000000000    0.0000000000000000   15.0000000000000000
   B    C 
     2    14
Direct
  0.3381849267617629  0.6690908128815064  0.1135598381739860
  0.6715215420877620  0.3357567601938615  0.1132271146623966
  0.1644626544779781  0.3216471758364957  0.1132091479628022
  0.3239994389495710  0.1619959775033075  0.1132183890068929
  0.1644660566083629  0.8428106022379288  0.1132088718915743
  0.8452775565346178  0.1619937419517262  0.1132092142919950
  0.6856241300207169  0.8428092260725704  0.1132004561776056
  0.8452766290938344  0.6832766618497881  0.1132089027849254
  0.3334996525903101  0.1667518113972968  0.3379996973774543
  0.5001904796004939  0.0001681199927064  0.3379726212945287
  0.3334785700016248  0.6667414412112914  0.3376722849787331
  0.5001904461266853  0.5000289720721297  0.3379726063257761
  0.8334729621768883  0.1667533624378237  0.3379948802576427
  0.0001493418313447  0.0000779480991238  0.3379779526068954
  0.8334731023215735  0.6667238484952072  0.3379948717955993
  0.0000578441498066  0.5000322044339317  0.3379731504111928
 
  0.00000000E+00  0.00000000E+00  0.00000000E+00
  0.00000000E+00  0.00000000E+00  0.00000000E+00
  0.00000000E+00  0.00000000E+00  0.00000000E+00
  0.00000000E+00  0.00000000E+00  0.00000000E+00
  0.00000000E+00  0.00000000E+00  0.00000000E+00
  0.00000000E+00  0.00000000E+00  0.00000000E+00
  0.00000000E+00  0.00000000E+00  0.00000000E+00
  0.00000000E+00  0.00000000E+00  0.00000000E+00
  0.00000000E+00  0.00000000E+00  0.00000000E+00
  0.00000000E+00  0.00000000E+00  0.00000000E+00
  0.00000000E+00  0.00000000E+00  0.00000000E+00
  0.00000000E+00  0.00000000E+00  0.00000000E+00
  0.00000000E+00  0.00000000E+00  0.00000000E+00
  0.00000000E+00  0.00000000E+00  0.00000000E+00
  0.00000000E+00  0.00000000E+00  0.00000000E+00
  0.00000000E+00  0.00000000E+00  0.00000000E+00
