Graphene-B4C3 Bridge with lattice parame
   1.00000000000000     
     4.2348642245059045    2.4449999999999998    0.0000000000000000
    -4.2348642245059045    2.4449999999999998    0.0000000000000000
     0.0000000000000000    0.0000000000000000   15.0000000000000000
   B    C 
     4    11
Direct
  0.0139733930147791 -0.0064782047235497  0.1019734846715147
  0.3690316830598240 -0.0064310969796641  0.1006299941367043
  0.0139298594396536  0.3483846323440192  0.1007929630524548
  0.6591842622728137  0.6383613588473254  0.1007415072953053
  0.3373964516823817  0.3165794546291826  0.1008121651851140
  0.6909284094558470 -0.0064299126544587  0.1006537515251019
  0.0139264837081772  0.6701089165005665  0.1008187080400402
  0.0745345223709475  0.4247443990005274  0.3373416503449946
  0.2413861957077519  0.2581941078563822  0.3374492607277157
  0.0746720246026055  0.9248564230218512  0.3373745892592410
  0.2414153744937740  0.7581543634826380  0.3373482588815616
  0.5747645211521221  0.4247860286895426  0.3373554152025279
  0.7414011492653146  0.2581904900235858  0.3373052276453060
  0.5747411062455020  0.9249600784524983  0.3374287329266766
  0.7413418968618274  0.7581196281762507  0.3373536244390773
 
  0.00000000E+00  0.00000000E+00  0.00000000E+00
  0.00000000E+00  0.00000000E+00  0.00000000E+00
  0.00000000E+00  0.00000000E+00  0.00000000E+00
  0.00000000E+00  0.00000000E+00  0.00000000E+00
  0.00000000E+00  0.00000000E+00  0.00000000E+00
  0.00000000E+00  0.00000000E+00  0.00000000E+00
  0.00000000E+00  0.00000000E+00  0.00000000E+00
  0.00000000E+00  0.00000000E+00  0.00000000E+00
  0.00000000E+00  0.00000000E+00  0.00000000E+00
  0.00000000E+00  0.00000000E+00  0.00000000E+00
  0.00000000E+00  0.00000000E+00  0.00000000E+00
  0.00000000E+00  0.00000000E+00  0.00000000E+00
  0.00000000E+00  0.00000000E+00  0.00000000E+00
  0.00000000E+00  0.00000000E+00  0.00000000E+00
  0.00000000E+00  0.00000000E+00  0.00000000E+00
