Graphene-B4C3 Hollow 2 with lattice para
   1.00000000000000     
     4.1880988527015450    2.4180000000000001    0.0000000000000000
    -4.1880988527015450    2.4180000000000001    0.0000000000000000
     0.0000000000000000    0.0000000000000000   15.0000000000000000
   B    C 
     4    11
Direct
  0.0043182710354519  0.0028805294558049  0.0999293707185247
  0.3594608910379354  0.0028641303825640  0.1012947641946674
  0.0043078350005112  0.3580017968979604  0.1012969602911453
  0.6491418163924183  0.6476968772086060  0.1013009056956332
  0.3280860547006780  0.3266325049517314  0.1010888956102544
  0.6805365796328542  0.0028838543628076  0.1010776379031773
  0.0043333793256613  0.6790778718849253  0.1010759924706635
  0.1665207229567922  0.3332557347782616  0.3380522519287913
  0.3332206946950044  0.1665583248409126  0.3380540975524998
  0.1665793937739211  0.8332876412192234  0.3380558315300156
  0.3332261137003011  0.6665927959147808  0.3379313077318288
  0.6665567354695026  0.3332600603163611  0.3379313547573208
  0.8332518345446994  0.1666148988425470  0.3380553122086315
  0.6665583440603073  0.8332325169930993  0.3380512917395012
  0.8331953336739686  0.6665944619504263  0.3380500256673729
 
  0.00000000E+00  0.00000000E+00  0.00000000E+00
  0.00000000E+00  0.00000000E+00  0.00000000E+00
  0.00000000E+00  0.00000000E+00  0.00000000E+00
  0.00000000E+00  0.00000000E+00  0.00000000E+00
  0.00000000E+00  0.00000000E+00  0.00000000E+00
  0.00000000E+00  0.00000000E+00  0.00000000E+00
  0.00000000E+00  0.00000000E+00  0.00000000E+00
  0.00000000E+00  0.00000000E+00  0.00000000E+00
  0.00000000E+00  0.00000000E+00  0.00000000E+00
  0.00000000E+00  0.00000000E+00  0.00000000E+00
  0.00000000E+00  0.00000000E+00  0.00000000E+00
  0.00000000E+00  0.00000000E+00  0.00000000E+00
  0.00000000E+00  0.00000000E+00  0.00000000E+00
  0.00000000E+00  0.00000000E+00  0.00000000E+00
  0.00000000E+00  0.00000000E+00  0.00000000E+00
