Graphene-B4C3 Top with lattice parameter
   1.00000000000000     
     4.1967591067393899    2.4230000000000000    0.0000000000000000
    -4.1967591067393899    2.4230000000000000    0.0000000000000000
     0.0000000000000000    0.0000000000000000   15.0000000000000000
   B    C 
     4    11
Direct
  0.0040710340159440  0.0027098100693417  0.1016703807927006
  0.3592632052582148  0.0029882316707539  0.1008286471914538
  0.0037860936591071  0.3576124269557853  0.1008297289236730
  0.6491461334987264  0.6475021893389343  0.1008251608792751
  0.3277850890426205  0.3261331934621426  0.1008522626963359
  0.6806271647619048  0.0029895592266689  0.1008497014567402
  0.0037637422032134  0.6789639221623874  0.1008461172122390
  0.0001299823739350  0.5000575535144247  0.3351384560325469
  0.1667717437300278  0.3334475341332043  0.3351745679274989
  0.0001082052035699  0.0000660921249775  0.3350970011066300
  0.1668185663216293  0.8334002959172973  0.3351786469249332
  0.5001191307047492  0.5001005998510772  0.3351414439273581
  0.6667715706077645  0.3334005893418800  0.3350355886861600
  0.5000748557385387  0.0000444405114514  0.3351369291580824
  0.6667241495467487  0.8333508950529996  0.3351747004176932
 
  0.00000000E+00  0.00000000E+00  0.00000000E+00
  0.00000000E+00  0.00000000E+00  0.00000000E+00
  0.00000000E+00  0.00000000E+00  0.00000000E+00
  0.00000000E+00  0.00000000E+00  0.00000000E+00
  0.00000000E+00  0.00000000E+00  0.00000000E+00
  0.00000000E+00  0.00000000E+00  0.00000000E+00
  0.00000000E+00  0.00000000E+00  0.00000000E+00
  0.00000000E+00  0.00000000E+00  0.00000000E+00
  0.00000000E+00  0.00000000E+00  0.00000000E+00
  0.00000000E+00  0.00000000E+00  0.00000000E+00
  0.00000000E+00  0.00000000E+00  0.00000000E+00
  0.00000000E+00  0.00000000E+00  0.00000000E+00
  0.00000000E+00  0.00000000E+00  0.00000000E+00
  0.00000000E+00  0.00000000E+00  0.00000000E+00
  0.00000000E+00  0.00000000E+00  0.00000000E+00
