Graphene-BC3 Top with lattice parameter 
   1.00000000000000     
     4.3431173999789596    2.5074999999999998    0.0000000000000000
    -4.3431173999789596    2.5074999999999998    0.0000000000000000
     0.0000000000000000    0.0000000000000000   15.0000000000000000
   B    C 
     2    14
Direct
  0.3383343554852705  0.6691672718879503  0.1002430008088108
  0.6716672432608990  0.3358335600411907  0.1002429951609902
  0.1648063150502860  0.3221078401170730  0.0999199414575584
  0.3246106708638216  0.1623052838938864  0.0999188864197172
  0.1648073595375207  0.8426990762048454  0.0999199383132784
  0.8452018184625467  0.1623029310660308  0.0999216315530211
  0.6854010598021409  0.8426996204046919  0.0999222792085553
  0.8452031871054330  0.6828979960093573  0.0999216222143077
  0.1665711523587972  0.3331486488519247  0.3288738219343630
  0.3331463762019496  0.1665729883786521  0.3288749257187369
  0.1665711546906085  0.8334221194932661  0.3288738216926134
  0.3333271845736280  0.6666633944042246  0.3285770540573807
  0.6666605634148761  0.3333300900083233  0.3285770519766703
  0.8334199105909119  0.1665734873009613  0.3288714365590418
  0.6668437434541978  0.8334216799476473  0.3288701566952880
  0.8334199051471324  0.6668460119899836  0.3288714362296870
 
  0.00000000E+00  0.00000000E+00  0.00000000E+00
  0.00000000E+00  0.00000000E+00  0.00000000E+00
  0.00000000E+00  0.00000000E+00  0.00000000E+00
  0.00000000E+00  0.00000000E+00  0.00000000E+00
  0.00000000E+00  0.00000000E+00  0.00000000E+00
  0.00000000E+00  0.00000000E+00  0.00000000E+00
  0.00000000E+00  0.00000000E+00  0.00000000E+00
  0.00000000E+00  0.00000000E+00  0.00000000E+00
  0.00000000E+00  0.00000000E+00  0.00000000E+00
  0.00000000E+00  0.00000000E+00  0.00000000E+00
  0.00000000E+00  0.00000000E+00  0.00000000E+00
  0.00000000E+00  0.00000000E+00  0.00000000E+00
  0.00000000E+00  0.00000000E+00  0.00000000E+00
  0.00000000E+00  0.00000000E+00  0.00000000E+00
  0.00000000E+00  0.00000000E+00  0.00000000E+00
  0.00000000E+00  0.00000000E+00  0.00000000E+00
