Graphene-B4C3 Top with lattice parameter
   1.00000000000000     
     4.1863668018939757    2.4169999999999998    0.0000000000000000
    -4.1863668018939757    2.4169999999999998    0.0000000000000000
     0.0000000000000000    0.0000000000000000   15.0000000000000000
   B    C 
     4    11
Direct
  0.0040597131906479  0.0027013185381521  0.1021252392953685
  0.3592381972493927  0.0029702640496621  0.1004770442653756
  0.0037845294755650  0.3576031297779000  0.1004778190356410
  0.6491452516484996  0.6475167360125375  0.1004742207815997
  0.3278876010602734  0.3262539481884358  0.1005998561393699
  0.6804955504254779  0.0029706448200614  0.1005993900822825
  0.0037762491924832  0.6788579325478096  0.1005967365527305
  0.0001316110517465  0.5000615541658342  0.3347751262992677
  0.1667820529473094  0.3334509713308386  0.3348092615869048
  0.0001136301944964  0.0000691881597200  0.3347351152881834
  0.1668247598578375  0.8334013718580757  0.3348132579760588
  0.5001239213843840  0.5000983967922700  0.3347779293587134
  0.6667799013827032  0.3334040678554815  0.3346687229290526
  0.5000856405997330  0.0000513923515306  0.3347735343906844
  0.6667320570061446  0.8333564168850162  0.3348094126854483
 
  0.00000000E+00  0.00000000E+00  0.00000000E+00
  0.00000000E+00  0.00000000E+00  0.00000000E+00
  0.00000000E+00  0.00000000E+00  0.00000000E+00
  0.00000000E+00  0.00000000E+00  0.00000000E+00
  0.00000000E+00  0.00000000E+00  0.00000000E+00
  0.00000000E+00  0.00000000E+00  0.00000000E+00
  0.00000000E+00  0.00000000E+00  0.00000000E+00
  0.00000000E+00  0.00000000E+00  0.00000000E+00
  0.00000000E+00  0.00000000E+00  0.00000000E+00
  0.00000000E+00  0.00000000E+00  0.00000000E+00
  0.00000000E+00  0.00000000E+00  0.00000000E+00
  0.00000000E+00  0.00000000E+00  0.00000000E+00
  0.00000000E+00  0.00000000E+00  0.00000000E+00
  0.00000000E+00  0.00000000E+00  0.00000000E+00
  0.00000000E+00  0.00000000E+00  0.00000000E+00
