Graphene-B4C3 Hollow 2 with lattice para
   1.00000000000000     
     4.1222809220139274    2.3799999999999999    0.0000000000000000
    -4.1222809220139274    2.3799999999999999    0.0000000000000000
     0.0000000000000000    0.0000000000000000   15.0000000000000000
   B    C 
     4    11
Direct
  0.0043942689389808  0.0029154688856869  0.1111611186222813
  0.3587929899470982  0.0029153709218942  0.0987178423853292
  0.0043996130395391  0.3573104535978828  0.0987195127475755
  0.6500089023163459  0.6485240964314116  0.0987165879087111
  0.3284808077988983  0.3269966826154556  0.1001633651143311
  0.6803166410475890  0.0029163695069261  0.1001678129362064
  0.0044005673994907  0.6788357433462402  0.1001671045918907
  0.1664675068406017  0.3332182929647831  0.3379674032322332
  0.3331531726616149  0.1665318344880524  0.3379692335128364
  0.1664990451248448  0.8332221965803390  0.3379729478402340
  0.3331454552583312  0.6665451066296534  0.3378064559380884
  0.6664798034257626  0.3332101875705851  0.3378064397927668
  0.8331564750250593  0.1665633174666074  0.3379722040213395
  0.6664717557915896  0.8331922075627013  0.3379695658603429
  0.8331269953842606  0.6665366714317932  0.3379684054958610
 
  0.00000000E+00  0.00000000E+00  0.00000000E+00
  0.00000000E+00  0.00000000E+00  0.00000000E+00
  0.00000000E+00  0.00000000E+00  0.00000000E+00
  0.00000000E+00  0.00000000E+00  0.00000000E+00
  0.00000000E+00  0.00000000E+00  0.00000000E+00
  0.00000000E+00  0.00000000E+00  0.00000000E+00
  0.00000000E+00  0.00000000E+00  0.00000000E+00
  0.00000000E+00  0.00000000E+00  0.00000000E+00
  0.00000000E+00  0.00000000E+00  0.00000000E+00
  0.00000000E+00  0.00000000E+00  0.00000000E+00
  0.00000000E+00  0.00000000E+00  0.00000000E+00
  0.00000000E+00  0.00000000E+00  0.00000000E+00
  0.00000000E+00  0.00000000E+00  0.00000000E+00
  0.00000000E+00  0.00000000E+00  0.00000000E+00
  0.00000000E+00  0.00000000E+00  0.00000000E+00
