Graphene-Borophene Top with lattice para
   1.00000000000000     
     4.3084763838275819    2.4874999999999998    0.0000000000000000
    -4.3084763838275819    2.4874999999999998    0.0000000000000000
     0.0000000000000000    0.0000000000000000   15.0000000000000000
   B    C 
     8     8
Direct
  0.6685712527763679  0.0000328762490901  0.1672411170758941
  0.3314606234727253  0.0000328762490901  0.1672411170758942
 -0.0000328762490901  0.3314277472236350  0.1672411170758941
 -0.0000328762490901  0.6685383765272771  0.1672411170758941
  0.3314606234727252  0.3314277472236350  0.1672411170758941
  0.6685712527763679  0.6685383765272771  0.1672411170758942
  0.6666659999999993  0.3333330000000032  0.1540397188190362
  0.3333330000000032  0.6666659999999993  0.1803477224338527
  0.1666537134493341  0.3333084268986727  0.4005544891874669
  0.3333293453351611  0.1666641726675783  0.4004502971410770
  0.1666537134493341  0.8333452865506679  0.4005544891874669
  0.3333330000000032  0.6666659999999993  0.4005948315943760
  0.6666659999999993  0.3333330000000032  0.4004233323784288
  0.8333348273324240  0.1666641726675783  0.4004502971410770
  0.6666905731013306  0.8333452865506680  0.4005544891874669
  0.8333348273324240  0.6666696546648420  0.4004502971410770
 
  0.00000000E+00  0.00000000E+00  0.00000000E+00
  0.00000000E+00  0.00000000E+00  0.00000000E+00
  0.00000000E+00  0.00000000E+00  0.00000000E+00
  0.00000000E+00  0.00000000E+00  0.00000000E+00
  0.00000000E+00  0.00000000E+00  0.00000000E+00
  0.00000000E+00  0.00000000E+00  0.00000000E+00
  0.00000000E+00  0.00000000E+00  0.00000000E+00
  0.00000000E+00  0.00000000E+00  0.00000000E+00
  0.00000000E+00  0.00000000E+00  0.00000000E+00
  0.00000000E+00  0.00000000E+00  0.00000000E+00
  0.00000000E+00  0.00000000E+00  0.00000000E+00
  0.00000000E+00  0.00000000E+00  0.00000000E+00
  0.00000000E+00  0.00000000E+00  0.00000000E+00
  0.00000000E+00  0.00000000E+00  0.00000000E+00
  0.00000000E+00  0.00000000E+00  0.00000000E+00
  0.00000000E+00  0.00000000E+00  0.00000000E+00
