Graphene-Borophene Top with lattice para
   1.00000000000000     
     4.2521847325815934    2.4550000000000001    0.0000000000000000
    -4.2521847325815934    2.4550000000000001    0.0000000000000000
     0.0000000000000000    0.0000000000000000   15.0000000000000000
   B    C 
     8     8
Direct
  0.6689515530029362  0.0000149885573268  0.1671651272481152
  0.3310624355543923  0.0000149885573268  0.1671651272481152
 -0.0000149885573268  0.3310474469970653  0.1671651272481152
 -0.0000149885573268  0.6689365644456102  0.1671651272481152
  0.3310624355543923  0.3310474469970654  0.1671651272481152
  0.6689515530029361  0.6689365644456102  0.1671651272481152
  0.6666659999999993  0.3333330000000032  0.1833702714375449
  0.3333330000000032  0.6666659999999993  0.1511738084381844
  0.1666392489791929  0.3332794979583904  0.4004885042685140
  0.3332964769670456  0.1666477384835205  0.4006027648031365
  0.1666392489791929  0.8333597510208097  0.4004885042685140
  0.3333330000000032  0.6666659999999993  0.4004392509179930
  0.6666659999999993  0.3333330000000032  0.4006187651693269
  0.8333512615164818  0.1666477384835205  0.4006027648031365
  0.6667195020416126  0.8333597510208097  0.4004885042685140
  0.8333512615164818  0.6667025230329571  0.4006027648031365
 
  0.00000000E+00  0.00000000E+00  0.00000000E+00
  0.00000000E+00  0.00000000E+00  0.00000000E+00
  0.00000000E+00  0.00000000E+00  0.00000000E+00
  0.00000000E+00  0.00000000E+00  0.00000000E+00
  0.00000000E+00  0.00000000E+00  0.00000000E+00
  0.00000000E+00  0.00000000E+00  0.00000000E+00
  0.00000000E+00  0.00000000E+00  0.00000000E+00
  0.00000000E+00  0.00000000E+00  0.00000000E+00
  0.00000000E+00  0.00000000E+00  0.00000000E+00
  0.00000000E+00  0.00000000E+00  0.00000000E+00
  0.00000000E+00  0.00000000E+00  0.00000000E+00
  0.00000000E+00  0.00000000E+00  0.00000000E+00
  0.00000000E+00  0.00000000E+00  0.00000000E+00
  0.00000000E+00  0.00000000E+00  0.00000000E+00
  0.00000000E+00  0.00000000E+00  0.00000000E+00
  0.00000000E+00  0.00000000E+00  0.00000000E+00
