Graphene-B4C3 Hollow 1 with lattice para
   1.00000000000000     
     4.2435244785437485    2.4499999999999997    0.0000000000000000
    -4.2435244785437485    2.4499999999999997    0.0000000000000000
     0.0000000000000000    0.0000000000000000   15.0000000000000000
   B    C 
     4    11
Direct
  0.0196208711820618 -0.0112500761740780  0.1026375194752610
  0.3748796262522490 -0.0108543468499666  0.1008696515485131
  0.0194305607715329  0.3440039944687233  0.1009617941083945
  0.6645104694259569  0.6337679811450370  0.1009398322416657
  0.3427875300386193  0.3118988092075577  0.1010596919955793
  0.6967990872485184 -0.0108934591070729  0.1010667872711688
  0.0196000809238343  0.6658180629175494  0.1010962111450242
  0.0976498376535025  0.4009970699969689  0.3378500910927681
  0.2642373570493762  0.2343696040068024  0.3380122277999174
  0.0975955609916311  0.9010152947794395  0.3379160264488015
  0.2642334675390666  0.7343767340947132  0.3378352300553660
  0.5975369781264951  0.4009888577912852  0.3378267790915123
  0.7641818335730453  0.2343206148112403  0.3378491711175219
  0.5975652111130844  0.9009898160061214  0.3379672629326509
  0.7642210836665767  0.7343294873501472  0.3378910570091760
 
  0.00000000E+00  0.00000000E+00  0.00000000E+00
  0.00000000E+00  0.00000000E+00  0.00000000E+00
  0.00000000E+00  0.00000000E+00  0.00000000E+00
  0.00000000E+00  0.00000000E+00  0.00000000E+00
  0.00000000E+00  0.00000000E+00  0.00000000E+00
  0.00000000E+00  0.00000000E+00  0.00000000E+00
  0.00000000E+00  0.00000000E+00  0.00000000E+00
  0.00000000E+00  0.00000000E+00  0.00000000E+00
  0.00000000E+00  0.00000000E+00  0.00000000E+00
  0.00000000E+00  0.00000000E+00  0.00000000E+00
  0.00000000E+00  0.00000000E+00  0.00000000E+00
  0.00000000E+00  0.00000000E+00  0.00000000E+00
  0.00000000E+00  0.00000000E+00  0.00000000E+00
  0.00000000E+00  0.00000000E+00  0.00000000E+00
  0.00000000E+00  0.00000000E+00  0.00000000E+00
