Graphene-BC3 Top with lattice parameter 
   1.00000000000000     
     4.3656340604773556    2.5205000000000002    0.0000000000000000
    -4.3656340604773556    2.5205000000000002    0.0000000000000000
     0.0000000000000000    0.0000000000000000   15.0000000000000000
   B    C 
     2    14
Direct
  0.3383346751026797  0.6691678164004102  0.1002365430560083
  0.6716674422641744  0.3358339197431957  0.1002365317934071
  0.1646440178844686  0.3217817147798497  0.0999111431588664
  0.3242847549840314  0.1621421189979411  0.0999102097985733
  0.1646452835295935  0.8428629386378835  0.0999111422726576
  0.8453653940366050  0.1621412750278158  0.0999125828872999
  0.6857257153026457  0.8428619990597924  0.0999131356208160
  0.8453670939799584  0.6832230503729112  0.0999125766455588
  0.1665656579156592  0.3331381326323036  0.3288822568254760
  0.3331357004609246  0.1665675935942336  0.3288833727188917
  0.1665656679307991  0.8334272198851717  0.3288822563115336
  0.3333268897139199  0.6666631943499159  0.3285849867389337
  0.6666602102518714  0.3333299545725352  0.3285849853356431
  0.8334248678494394  0.1665681588197592  0.3288798547407006
  0.6668537699831989  0.8334267358192802  0.3288785680066831
  0.8334248588100506  0.6668561773070095  0.3288798540889707
 
  0.00000000E+00  0.00000000E+00  0.00000000E+00
  0.00000000E+00  0.00000000E+00  0.00000000E+00
  0.00000000E+00  0.00000000E+00  0.00000000E+00
  0.00000000E+00  0.00000000E+00  0.00000000E+00
  0.00000000E+00  0.00000000E+00  0.00000000E+00
  0.00000000E+00  0.00000000E+00  0.00000000E+00
  0.00000000E+00  0.00000000E+00  0.00000000E+00
  0.00000000E+00  0.00000000E+00  0.00000000E+00
  0.00000000E+00  0.00000000E+00  0.00000000E+00
  0.00000000E+00  0.00000000E+00  0.00000000E+00
  0.00000000E+00  0.00000000E+00  0.00000000E+00
  0.00000000E+00  0.00000000E+00  0.00000000E+00
  0.00000000E+00  0.00000000E+00  0.00000000E+00
  0.00000000E+00  0.00000000E+00  0.00000000E+00
  0.00000000E+00  0.00000000E+00  0.00000000E+00
  0.00000000E+00  0.00000000E+00  0.00000000E+00
