Graphene-B4C3 Hollow 2 with lattice para
   1.00000000000000     
     4.1984911575469575    2.4239999999999995    0.0000000000000000
    -4.1984911575469575    2.4239999999999995    0.0000000000000000
     0.0000000000000000    0.0000000000000000   15.0000000000000000
   B    C 
     4    11
Direct
  0.0042612537884777  0.0028622638813258  0.1034034012652504
  0.3593382102758700  0.0028306364608260  0.1009264406413785
  0.0042630328200169  0.3579026388464418  0.1009284564719620
  0.6490817878431516  0.6476675699552560  0.1009480555763305
  0.3275895104981298  0.3261872329460308  0.1013579996412705
  0.6808179082661305  0.0028078819114354  0.1014005312386745
  0.0042244075421890  0.6793677479557996  0.1014089726823422
  0.1664766574806167  0.3332680149046459  0.3376138269143017
  0.3332575429667503  0.1664833311789493  0.3376152044451985
  0.1667439197347195  0.8334802951839063  0.3376160987447784
  0.3332960910481927  0.6666301538764527  0.3375938323359086
  0.6666126385035870  0.3333088608795448  0.3375938726206859
  0.8334705477665049  0.1667604754570378  0.3376149073118940
  0.6666610369506272  0.8332000990339912  0.3376122554522097
  0.8331994545150432  0.6666767975283678  0.3376121446578413
 
  0.00000000E+00  0.00000000E+00  0.00000000E+00
  0.00000000E+00  0.00000000E+00  0.00000000E+00
  0.00000000E+00  0.00000000E+00  0.00000000E+00
  0.00000000E+00  0.00000000E+00  0.00000000E+00
  0.00000000E+00  0.00000000E+00  0.00000000E+00
  0.00000000E+00  0.00000000E+00  0.00000000E+00
  0.00000000E+00  0.00000000E+00  0.00000000E+00
  0.00000000E+00  0.00000000E+00  0.00000000E+00
  0.00000000E+00  0.00000000E+00  0.00000000E+00
  0.00000000E+00  0.00000000E+00  0.00000000E+00
  0.00000000E+00  0.00000000E+00  0.00000000E+00
  0.00000000E+00  0.00000000E+00  0.00000000E+00
  0.00000000E+00  0.00000000E+00  0.00000000E+00
  0.00000000E+00  0.00000000E+00  0.00000000E+00
  0.00000000E+00  0.00000000E+00  0.00000000E+00
