Graphene-B4C3 Hollow 2 with lattice para
   1.00000000000000     
     4.1984911575469575    2.4239999999999995    0.0000000000000000
    -4.1984911575469575    2.4239999999999995    0.0000000000000000
     0.0000000000000000    0.0000000000000000   15.0000000000000000
   B    C 
     4    11
Direct
  0.0041698779414305  0.0027130549314851  0.1196171842479409
  0.3563878488355259  0.0028279292386521  0.0976804509940886
  0.0042159061630668  0.3549482800687987  0.0976836813161059
  0.6519733783411725  0.6505995547749523  0.0976724020442725
  0.3262937381263341  0.3249079329464672  0.1003137682988675
  0.6820810862050083  0.0027918572869965  0.1002898782542005
  0.0041848904766641  0.6806553209678742  0.1002817953068098
  0.1666273963614296  0.3333804184037965  0.3372323267668884
  0.3333806458048766  0.1666288275875632  0.3372328762589696
  0.1667479130108634  0.8333647120525146  0.3372337769430394
  0.3333340053824982  0.6666692583871872  0.3371547873395741
  0.6666688046666993  0.3333321458831994  0.3371547789338167
  0.8333633082157822  0.1667466590736496  0.3372337116481079
  0.6666175112377318  0.8332501398044643  0.3372325355505741
  0.8332476892309237  0.6666179085924104  0.3372320460967711
 
  0.00000000E+00  0.00000000E+00  0.00000000E+00
  0.00000000E+00  0.00000000E+00  0.00000000E+00
  0.00000000E+00  0.00000000E+00  0.00000000E+00
  0.00000000E+00  0.00000000E+00  0.00000000E+00
  0.00000000E+00  0.00000000E+00  0.00000000E+00
  0.00000000E+00  0.00000000E+00  0.00000000E+00
  0.00000000E+00  0.00000000E+00  0.00000000E+00
  0.00000000E+00  0.00000000E+00  0.00000000E+00
  0.00000000E+00  0.00000000E+00  0.00000000E+00
  0.00000000E+00  0.00000000E+00  0.00000000E+00
  0.00000000E+00  0.00000000E+00  0.00000000E+00
  0.00000000E+00  0.00000000E+00  0.00000000E+00
  0.00000000E+00  0.00000000E+00  0.00000000E+00
  0.00000000E+00  0.00000000E+00  0.00000000E+00
  0.00000000E+00  0.00000000E+00  0.00000000E+00
