Graphene-B4C3 Bridge with lattice parame
   1.00000000000000     
     4.1785725732599168    2.4125000000000001    0.0000000000000000
    -4.1785725732599168    2.4125000000000001    0.0000000000000000
     0.0000000000000000    0.0000000000000000   15.0000000000000000
   B    C 
     4    11
Direct
  0.0405574169900891 -0.0319447915264890  0.1015252576104902
  0.3957433716437680 -0.0319383279082485  0.1025663819992072
  0.0405005949442624  0.3228244860282998  0.1027803641739077
  0.6858709189099900  0.6125618281729753  0.1026943139140006
  0.3646532390087192  0.2913975596888639  0.1024656479874507
  0.7168661700198679 -0.0319261465086636  0.1025195608966340
  0.0401970954536507  0.6440722872041528  0.1024918424665474
  0.0514959046134633  0.4472781811322366  0.3360073148744142
  0.2181726164787999  0.2805823600050821  0.3360846307138562
  0.0514491594493443  0.9472059848967871  0.3359649417879660
  0.2181724732079201  0.7805521020643371  0.3361211410821097
  0.5514114519614786  0.4472990196101915  0.3360386524296685
  0.7180850854930517  0.2804680246437132  0.3360029937020280
  0.5514002876029090  0.9472023873865979  0.3360414983709375
  0.7180515475560085  0.7804657117768607  0.3360747913241184
 
  0.00000000E+00  0.00000000E+00  0.00000000E+00
  0.00000000E+00  0.00000000E+00  0.00000000E+00
  0.00000000E+00  0.00000000E+00  0.00000000E+00
  0.00000000E+00  0.00000000E+00  0.00000000E+00
  0.00000000E+00  0.00000000E+00  0.00000000E+00
  0.00000000E+00  0.00000000E+00  0.00000000E+00
  0.00000000E+00  0.00000000E+00  0.00000000E+00
  0.00000000E+00  0.00000000E+00  0.00000000E+00
  0.00000000E+00  0.00000000E+00  0.00000000E+00
  0.00000000E+00  0.00000000E+00  0.00000000E+00
  0.00000000E+00  0.00000000E+00  0.00000000E+00
  0.00000000E+00  0.00000000E+00  0.00000000E+00
  0.00000000E+00  0.00000000E+00  0.00000000E+00
  0.00000000E+00  0.00000000E+00  0.00000000E+00
  0.00000000E+00  0.00000000E+00  0.00000000E+00
