Graphene-Borophene Hollow 2 with lattice
   1.00000000000000     
     4.3110744600389355    2.4889999999999999    0.0000000000000000
    -4.3110744600389355    2.4889999999999999    0.0000000000000000
     0.0000000000000000    0.0000000000000000   15.0000000000000000
   B    C 
     8     8
Direct
  0.6694963406536698 -0.0000583678346013  0.1670925621096422
  0.3304442915117317 -0.0000583678346013  0.1670925621096422
  0.0000583678346013  0.3305026593463326  0.1670925621096422
  0.0000583678346013  0.6695547084882711  0.1670925621096422
  0.3304442915117317  0.3305026593463325  0.1670925621096422
  0.6694963406536698  0.6695547084882711  0.1670925621096422
  0.6666659999999993  0.3333330000000032  0.1607295529176738
  0.3333330000000032  0.6666659999999993  0.1739804206438249
  0.3333521650126584  0.1666760825063363  0.4034211062467016
  0.5000173761397277  0.0000347522794549  0.4035085226247061
  0.3333326666666636  0.6666663333333389  0.4034559367366753
  0.5000173761397277  0.4999816238602753  0.4035085226247061
  0.8333229174936665  0.1666760825063363  0.4034211062467016
  0.9999996666666675  0.9999993333333350  0.4032898304297398
  0.8333229174936665  0.6666468349873442  0.4034211062467016
 -0.0000357522794523  0.4999816238602753  0.4035085226247061
 
  0.00000000E+00  0.00000000E+00  0.00000000E+00
  0.00000000E+00  0.00000000E+00  0.00000000E+00
  0.00000000E+00  0.00000000E+00  0.00000000E+00
  0.00000000E+00  0.00000000E+00  0.00000000E+00
  0.00000000E+00  0.00000000E+00  0.00000000E+00
  0.00000000E+00  0.00000000E+00  0.00000000E+00
  0.00000000E+00  0.00000000E+00  0.00000000E+00
  0.00000000E+00  0.00000000E+00  0.00000000E+00
  0.00000000E+00  0.00000000E+00  0.00000000E+00
  0.00000000E+00  0.00000000E+00  0.00000000E+00
  0.00000000E+00  0.00000000E+00  0.00000000E+00
  0.00000000E+00  0.00000000E+00  0.00000000E+00
  0.00000000E+00  0.00000000E+00  0.00000000E+00
  0.00000000E+00  0.00000000E+00  0.00000000E+00
  0.00000000E+00  0.00000000E+00  0.00000000E+00
  0.00000000E+00  0.00000000E+00  0.00000000E+00
