Graphene-B4C3 Hollow 2 with lattice para
   1.00000000000000     
     4.1950270559318197    2.4219999999999997    0.0000000000000000
    -4.1950270559318197    2.4219999999999997    0.0000000000000000
     0.0000000000000000    0.0000000000000000   15.0000000000000000
   B    C 
     4    11
Direct
  0.0041699391182794  0.0027132872619748  0.1196344728738472
  0.3564042976808262  0.0028278360214394  0.0976758085313779
  0.0042157849371610  0.3549647538008431  0.0976790462321292
  0.6519569331352553  0.6505830408208657  0.0976677261300801
  0.3263426054468295  0.3249567379073414  0.1003134456721892
  0.6820322267086986  0.0027918733916442  0.1002894896342284
  0.0041848824787168  0.6806063688332034  0.1002813792976862
  0.1666280076537863  0.3333803793876841  0.3372319296604602
  0.3333806114122541  0.1666294368515949  0.3372324743672362
  0.1667472804224580  0.8333641249758461  0.3372333710067503
  0.3333339945418943  0.6666692429855353  0.3371548800426439
  0.6666687913976106  0.3333321437932554  0.3371548716696526
  0.8333627334358394  0.1667460265379146  0.3372333083042708
  0.6666175774137374  0.8332507792665258  0.3372321418190553
  0.8332483342166603  0.6666179681643432  0.3372316547584193
 
  0.00000000E+00  0.00000000E+00  0.00000000E+00
  0.00000000E+00  0.00000000E+00  0.00000000E+00
  0.00000000E+00  0.00000000E+00  0.00000000E+00
  0.00000000E+00  0.00000000E+00  0.00000000E+00
  0.00000000E+00  0.00000000E+00  0.00000000E+00
  0.00000000E+00  0.00000000E+00  0.00000000E+00
  0.00000000E+00  0.00000000E+00  0.00000000E+00
  0.00000000E+00  0.00000000E+00  0.00000000E+00
  0.00000000E+00  0.00000000E+00  0.00000000E+00
  0.00000000E+00  0.00000000E+00  0.00000000E+00
  0.00000000E+00  0.00000000E+00  0.00000000E+00
  0.00000000E+00  0.00000000E+00  0.00000000E+00
  0.00000000E+00  0.00000000E+00  0.00000000E+00
  0.00000000E+00  0.00000000E+00  0.00000000E+00
  0.00000000E+00  0.00000000E+00  0.00000000E+00
