Graphene-B4C3 Hollow 2 with lattice para
   1.00000000000000     
     4.1950270559318197    2.4219999999999997    0.0000000000000000
    -4.1950270559318197    2.4219999999999997    0.0000000000000000
     0.0000000000000000    0.0000000000000000   15.0000000000000000
   B    C 
     4    11
Direct
  0.0042622718528627  0.0028651854729718  0.1038847020668489
  0.3593638950021429  0.0028285693691798  0.1008411487818588
  0.0042585459947673  0.3579267582646866  0.1008431283784893
  0.6490522287212925  0.6476390476682076  0.1008628084552739
  0.3276272053686199  0.3262230225511899  0.1013141882709407
  0.6807783464094650  0.0028120685990767  0.1013562127614774
  0.0042286491989851  0.6793281411997204  0.1013646205480395
  0.1664852531664245  0.3332601049859451  0.3376057000387929
  0.3332497762618091  0.1664914564542894  0.3376071400853384
  0.1667278654764960  0.8334735503238750  0.3376081869198413
  0.3332962995704613  0.6666295182009024  0.3375714347773396
  0.6666121188977725  0.3333092835873073  0.3375714688266261
  0.8334641522840263  0.1667443331470543  0.3376070182726915
  0.6666701454796741  0.8332173824060217  0.3376042210452276
  0.8332172463152078  0.6666855777695827  0.3376040207712405
 
  0.00000000E+00  0.00000000E+00  0.00000000E+00
  0.00000000E+00  0.00000000E+00  0.00000000E+00
  0.00000000E+00  0.00000000E+00  0.00000000E+00
  0.00000000E+00  0.00000000E+00  0.00000000E+00
  0.00000000E+00  0.00000000E+00  0.00000000E+00
  0.00000000E+00  0.00000000E+00  0.00000000E+00
  0.00000000E+00  0.00000000E+00  0.00000000E+00
  0.00000000E+00  0.00000000E+00  0.00000000E+00
  0.00000000E+00  0.00000000E+00  0.00000000E+00
  0.00000000E+00  0.00000000E+00  0.00000000E+00
  0.00000000E+00  0.00000000E+00  0.00000000E+00
  0.00000000E+00  0.00000000E+00  0.00000000E+00
  0.00000000E+00  0.00000000E+00  0.00000000E+00
  0.00000000E+00  0.00000000E+00  0.00000000E+00
  0.00000000E+00  0.00000000E+00  0.00000000E+00
