Graphene-B4C3 Hollow 2 with lattice para
   1.00000000000000     
     4.2132135894112936    2.4325000000000001    0.0000000000000000
    -4.2132135894112936    2.4325000000000001    0.0000000000000000
     0.0000000000000000    0.0000000000000000   15.0000000000000000
   B    C 
     4    11
Direct
  0.0044156987441560  0.0029401440340826  0.0997761357264127
  0.3595550268836282  0.0029441057445812  0.1008325041063748
  0.0044271195711647  0.3580712829752675  0.1008346318853009
  0.6492665337939817  0.6477827515484035  0.1008390523577456
  0.3278963047468685  0.3264227532526548  0.1006492196803077
  0.6809259185409984  0.0029322279675135  0.1006496716033118
  0.0044091854294918  0.6794360078090406  0.1006503945795973
  0.1664386561081577  0.3331970569204360  0.3384017669976690
  0.3331347998815902  0.1665079416767781  0.3384036255950149
  0.1664784267964814  0.8332089766373544  0.3384057317155766
  0.3331423503912494  0.6665362322601998  0.3382978528084886
  0.6664761169876229  0.3332009749922394  0.3382978057222951
  0.8331465137078446  0.1665399669747012  0.3384052750080396
  0.6664712823409139  0.8331794601344756  0.3384016906951510
  0.8331100660758601  0.6665341170722826  0.3384006415187413
 
  0.00000000E+00  0.00000000E+00  0.00000000E+00
  0.00000000E+00  0.00000000E+00  0.00000000E+00
  0.00000000E+00  0.00000000E+00  0.00000000E+00
  0.00000000E+00  0.00000000E+00  0.00000000E+00
  0.00000000E+00  0.00000000E+00  0.00000000E+00
  0.00000000E+00  0.00000000E+00  0.00000000E+00
  0.00000000E+00  0.00000000E+00  0.00000000E+00
  0.00000000E+00  0.00000000E+00  0.00000000E+00
  0.00000000E+00  0.00000000E+00  0.00000000E+00
  0.00000000E+00  0.00000000E+00  0.00000000E+00
  0.00000000E+00  0.00000000E+00  0.00000000E+00
  0.00000000E+00  0.00000000E+00  0.00000000E+00
  0.00000000E+00  0.00000000E+00  0.00000000E+00
  0.00000000E+00  0.00000000E+00  0.00000000E+00
  0.00000000E+00  0.00000000E+00  0.00000000E+00
