Graphene-B4C3 Top with lattice parameter
   1.00000000000000     
     4.1941610305280363    2.4215000000000000    0.0000000000000000
    -4.1941610305280363    2.4215000000000000    0.0000000000000000
     0.0000000000000000    0.0000000000000000   15.0000000000000000
   B    C 
     4    11
Direct
  0.0040557200533975  0.0026986665753462  0.1013737996839523
  0.3592443741314565  0.0029738263868346  0.1005395652716310
  0.0037699832514374  0.3576037694473580  0.1005403850646277
  0.6491426882898987  0.6475054119692483  0.1005368586585301
  0.3278045238505799  0.3261685551629957  0.1005606577708085
  0.6805745732738594  0.0029704993242697  0.1005660900604842
  0.0037728249076664  0.6789363024720571  0.1005644351366097
  0.0001355862972931  0.5000632931821170  0.3348571373860863
  0.1667831801231241  0.3334512521621497  0.3348931636757638
  0.0001164916046364  0.0000711752419466  0.3348175032066520
  0.1668275206391507  0.8334052152026422  0.3348973930831416
  0.5001272537828682  0.5001023358089709  0.3348597455264636
  0.6667825395847958  0.3334060637138485  0.3347567471243931
  0.5000867627583498  0.0000522089104881  0.3348556852044269
  0.6667366441181797  0.8333587577730511  0.3348934998131109
 
  0.00000000E+00  0.00000000E+00  0.00000000E+00
  0.00000000E+00  0.00000000E+00  0.00000000E+00
  0.00000000E+00  0.00000000E+00  0.00000000E+00
  0.00000000E+00  0.00000000E+00  0.00000000E+00
  0.00000000E+00  0.00000000E+00  0.00000000E+00
  0.00000000E+00  0.00000000E+00  0.00000000E+00
  0.00000000E+00  0.00000000E+00  0.00000000E+00
  0.00000000E+00  0.00000000E+00  0.00000000E+00
  0.00000000E+00  0.00000000E+00  0.00000000E+00
  0.00000000E+00  0.00000000E+00  0.00000000E+00
  0.00000000E+00  0.00000000E+00  0.00000000E+00
  0.00000000E+00  0.00000000E+00  0.00000000E+00
  0.00000000E+00  0.00000000E+00  0.00000000E+00
  0.00000000E+00  0.00000000E+00  0.00000000E+00
  0.00000000E+00  0.00000000E+00  0.00000000E+00
