Graphene-BC3 Hollow with lattice paramet
   1.00000000000000     
     4.3864186701681822    2.5325000000000002    0.0000000000000000
    -4.3864186701681822    2.5325000000000002    0.0000000000000000
     0.0000000000000000    0.0000000000000000   15.0000000000000000
   B    C 
     2    14
Direct
  0.3383314673291192  0.6691647026225851  0.1002775304544080
  0.6716670270424503  0.3358324550242096  0.0999704281725325
  0.1644832978614019  0.3214731201688693  0.0999652990709508
  0.3238960673251513  0.1619480100076004  0.0999716189943374
  0.1644838348501451  0.8430107702798176  0.0999653011551710
  0.8455451470998854  0.1619462156244479  0.0999703591152140
  0.6860156563998991  0.8430079020163491  0.0999639016111768
  0.8455452091506718  0.6835983029012490  0.0999703653815680
  0.3333565485418966  0.1666780003189598  0.3255766295375860
  0.5000440771388901  0.0000892838909235  0.3255541874029912
  0.3333346481772184  0.6666670397155291  0.3252722914201689
  0.5000440780117980  0.4999545383567277  0.3255541878760050
  0.8333287727666435  0.1666795789671603  0.3255719782072483
  0.0000046951581449  0.0000022182590478  0.3255557641248175
  0.8333287679845037  0.6666486357420732  0.3255719794542313
  0.9999160384955138  0.4999578927711449  0.3255548446882652
 
  0.00000000E+00  0.00000000E+00  0.00000000E+00
  0.00000000E+00  0.00000000E+00  0.00000000E+00
  0.00000000E+00  0.00000000E+00  0.00000000E+00
  0.00000000E+00  0.00000000E+00  0.00000000E+00
  0.00000000E+00  0.00000000E+00  0.00000000E+00
  0.00000000E+00  0.00000000E+00  0.00000000E+00
  0.00000000E+00  0.00000000E+00  0.00000000E+00
  0.00000000E+00  0.00000000E+00  0.00000000E+00
  0.00000000E+00  0.00000000E+00  0.00000000E+00
  0.00000000E+00  0.00000000E+00  0.00000000E+00
  0.00000000E+00  0.00000000E+00  0.00000000E+00
  0.00000000E+00  0.00000000E+00  0.00000000E+00
  0.00000000E+00  0.00000000E+00  0.00000000E+00
  0.00000000E+00  0.00000000E+00  0.00000000E+00
  0.00000000E+00  0.00000000E+00  0.00000000E+00
  0.00000000E+00  0.00000000E+00  0.00000000E+00
