Graphene-Borophene Bridge with lattice p
   1.00000000000000     
     4.3119404854427197    2.4895000000000000    0.0000000000000000
    -4.3119404854427197    2.4895000000000000    0.0000000000000000
     0.0000000000000000    0.0000000000000000   15.0000000000000000
   B    C 
     8     8
Direct
  0.6706679611739947 -0.0022019978989151  0.1670801355773085
  0.3334171788746580 -0.0022177099517171  0.1667306528132261
  0.0022019978989151  0.3293310388260073  0.1670801355773085
  0.0022177099517171  0.6665818211253438  0.1667306528132261
  0.3332640412453727  0.3292707160607639  0.1660037580575570
  0.6707282839392388  0.6667349587546295  0.1660037580575570
  0.6684822962580056  0.3315167037419970  0.1545929458447032
  0.3351298424540461  0.6648691575459569  0.1799496519828065
  0.2480404040718477  0.2520748661412366  0.4022395688334014
  0.4146679483302481  0.0853386031945160  0.4023534412045139
  0.2479720996290831  0.7520269003709191  0.4023985484478799
  0.4147150242376581  0.5852839757623440  0.4023391698270073
  0.7479726943399160  0.2520263056600860  0.4023157059948817
  0.9145976535977485  0.0854013464022541  0.4021221982640794
  0.7479241338587661  0.7519585959281547  0.4022395688334014
  0.9146603968054866  0.5853310516697543  0.4023534412045139
 
  0.00000000E+00  0.00000000E+00  0.00000000E+00
  0.00000000E+00  0.00000000E+00  0.00000000E+00
  0.00000000E+00  0.00000000E+00  0.00000000E+00
  0.00000000E+00  0.00000000E+00  0.00000000E+00
  0.00000000E+00  0.00000000E+00  0.00000000E+00
  0.00000000E+00  0.00000000E+00  0.00000000E+00
  0.00000000E+00  0.00000000E+00  0.00000000E+00
  0.00000000E+00  0.00000000E+00  0.00000000E+00
  0.00000000E+00  0.00000000E+00  0.00000000E+00
  0.00000000E+00  0.00000000E+00  0.00000000E+00
  0.00000000E+00  0.00000000E+00  0.00000000E+00
  0.00000000E+00  0.00000000E+00  0.00000000E+00
  0.00000000E+00  0.00000000E+00  0.00000000E+00
  0.00000000E+00  0.00000000E+00  0.00000000E+00
  0.00000000E+00  0.00000000E+00  0.00000000E+00
  0.00000000E+00  0.00000000E+00  0.00000000E+00
