k-points 31
0
Gamma
31    31    1
0    0    0