k-points 26
0
Gamma
26    26    1
0    0    0