Graphene-BC3 Top with lattice parameter 
   1.00000000000000     
     4.3682321366887082    2.5219999999999998    0.0000000000000000
    -4.3682321366887082    2.5219999999999998    0.0000000000000000
     0.0000000000000000    0.0000000000000000   15.0000000000000000
   B    C 
     2    14
Direct
  0.3383347085051511  0.6691672459293159  0.1002357529252649
  0.6716675701603947  0.3358336266668900  0.1002357292514944
  0.1646255116287136  0.3217446993844533  0.0999096550077070
  0.3242479938864733  0.1621241387138355  0.0999086851381819
  0.1646264617446747  0.8428811511253613  0.0999096478608479
  0.8453840038117733  0.1621214727582085  0.0999111524154728
  0.6857658875626953  0.8428820088036417  0.0999117453535376
  0.8453851449376657  0.6832619293223274  0.0999111584564005
  0.1665647568646378  0.3331367509021277  0.3288842543574120
  0.3331341281980471  0.1665668687947814  0.3288853761390556
  0.1665647576045970  0.8334275859497353  0.3288842546297488
  0.3333265159234458  0.6666630638863822  0.3285841848935505
  0.6666599074186834  0.3333297416246097  0.3285841824437483
  0.8334250376970758  0.1665674435575255  0.3288818391229498
  0.6668545804905932  0.8334270792600691  0.3288805426877062
  0.8334250335653834  0.6668571933207446  0.3288818393169564
 
  0.00000000E+00  0.00000000E+00  0.00000000E+00
  0.00000000E+00  0.00000000E+00  0.00000000E+00
  0.00000000E+00  0.00000000E+00  0.00000000E+00
  0.00000000E+00  0.00000000E+00  0.00000000E+00
  0.00000000E+00  0.00000000E+00  0.00000000E+00
  0.00000000E+00  0.00000000E+00  0.00000000E+00
  0.00000000E+00  0.00000000E+00  0.00000000E+00
  0.00000000E+00  0.00000000E+00  0.00000000E+00
  0.00000000E+00  0.00000000E+00  0.00000000E+00
  0.00000000E+00  0.00000000E+00  0.00000000E+00
  0.00000000E+00  0.00000000E+00  0.00000000E+00
  0.00000000E+00  0.00000000E+00  0.00000000E+00
  0.00000000E+00  0.00000000E+00  0.00000000E+00
  0.00000000E+00  0.00000000E+00  0.00000000E+00
  0.00000000E+00  0.00000000E+00  0.00000000E+00
  0.00000000E+00  0.00000000E+00  0.00000000E+00
