Graphene-BC3 Top with lattice parameter 
   1.00000000000000     
     4.3344571459411148    2.5024999999999999    0.0000000000000000
    -4.3344571459411148    2.5024999999999999    0.0000000000000000
     0.0000000000000000    0.0000000000000000   15.0000000000000000
   B    C 
     2    14
Direct
  0.3383343228925181  0.6691673154617980  0.1002471498515199
  0.6716671475358545  0.3358335214862089  0.1002471478321719
  0.1648682125386303  0.3222315699440750  0.0999226705538509
  0.3247340468695360  0.1623668701836107  0.0999215675484964
  0.1648689838397616  0.8426369343451506  0.0999226601343414
  0.8451398150184659  0.1623647966484432  0.0999244466837232
  0.6852772612160535  0.8426377758974605  0.0999251190241832
  0.8451409626301856  0.6827741620400721  0.0999244314861507
  0.1665731745314180  0.3331524836250966  0.3288707207549399
  0.3331502880147852  0.1665749445055381  0.3288718296070691
  0.1665731769922034  0.8334203089101977  0.3288707202771873
  0.3333273543893903  0.6666634792832662  0.3285739224583082
  0.6666607242374805  0.3333301715083517  0.3285739193942561
  0.8334181843936349  0.1665754281110809  0.3288683263042781
  0.6668401659621429  0.8334198922648279  0.3288670423490697
  0.8334181789379588  0.6668423457848318  0.3288683257404742
 
  0.00000000E+00  0.00000000E+00  0.00000000E+00
  0.00000000E+00  0.00000000E+00  0.00000000E+00
  0.00000000E+00  0.00000000E+00  0.00000000E+00
  0.00000000E+00  0.00000000E+00  0.00000000E+00
  0.00000000E+00  0.00000000E+00  0.00000000E+00
  0.00000000E+00  0.00000000E+00  0.00000000E+00
  0.00000000E+00  0.00000000E+00  0.00000000E+00
  0.00000000E+00  0.00000000E+00  0.00000000E+00
  0.00000000E+00  0.00000000E+00  0.00000000E+00
  0.00000000E+00  0.00000000E+00  0.00000000E+00
  0.00000000E+00  0.00000000E+00  0.00000000E+00
  0.00000000E+00  0.00000000E+00  0.00000000E+00
  0.00000000E+00  0.00000000E+00  0.00000000E+00
  0.00000000E+00  0.00000000E+00  0.00000000E+00
  0.00000000E+00  0.00000000E+00  0.00000000E+00
  0.00000000E+00  0.00000000E+00  0.00000000E+00
