Graphene-B4C3 Hollow 1 with lattice para
   1.00000000000000     
     4.2123475640075094    2.4319999999999999    0.0000000000000000
    -4.2123475640075094    2.4319999999999999    0.0000000000000000
     0.0000000000000000    0.0000000000000000   15.0000000000000000
   B    C 
     4    11
Direct
  0.0198937022269098 -0.0112284972296102  0.1005662593578580
  0.3750705079791712 -0.0112448127443628  0.0998223038134076
  0.0199207027931355  0.3438920744465341  0.0999371604793986
  0.6649469153118550  0.6335448619126095  0.0999038448110821
  0.3435364468993832  0.3120296049351306  0.0999100656415770
  0.6967051102842875 -0.0111376154604907  0.0997238242392736
  0.0199718411935373  0.6653070360606013  0.0999353202081925
  0.0972574213922204  0.4011685902378557  0.3389701822536092
  0.2639278051029187  0.2344985378298363  0.3390865840142068
  0.0972877772413769  0.9012068528782147  0.3390447403851526
  0.2639657396536683  0.7345075020378110  0.3389467763287144
  0.5972732771197468  0.4011697708307123  0.3389762595733327
  0.7639266273191683  0.2344875485585127  0.3389222009042778
  0.5972635605787562  0.9011896518099112  0.3390516742357046
  0.7639021204594125  0.7344873383412014  0.3389821370875333
 
  0.00000000E+00  0.00000000E+00  0.00000000E+00
  0.00000000E+00  0.00000000E+00  0.00000000E+00
  0.00000000E+00  0.00000000E+00  0.00000000E+00
  0.00000000E+00  0.00000000E+00  0.00000000E+00
  0.00000000E+00  0.00000000E+00  0.00000000E+00
  0.00000000E+00  0.00000000E+00  0.00000000E+00
  0.00000000E+00  0.00000000E+00  0.00000000E+00
  0.00000000E+00  0.00000000E+00  0.00000000E+00
  0.00000000E+00  0.00000000E+00  0.00000000E+00
  0.00000000E+00  0.00000000E+00  0.00000000E+00
  0.00000000E+00  0.00000000E+00  0.00000000E+00
  0.00000000E+00  0.00000000E+00  0.00000000E+00
  0.00000000E+00  0.00000000E+00  0.00000000E+00
  0.00000000E+00  0.00000000E+00  0.00000000E+00
  0.00000000E+00  0.00000000E+00  0.00000000E+00
