Graphene-Borophene Hollow 1 with lattice
   1.00000000000000     
     4.3197347140767803    2.4940000000000002    0.0000000000000000
    -4.3197347140767803    2.4940000000000002    0.0000000000000000
     0.0000000000000000    0.0000000000000000   15.0000000000000000
   B    C 
     8     8
Direct
  0.6712719128052428 -0.0018838427095626  0.1667854138751285
  0.3324101538745393 -0.0018064132991575  0.1669205831905071
  0.0018838427095626  0.3287270871947594  0.1667854138751285
  0.0018064132991575  0.6675888461254631  0.1669205831905071
  0.3323547138836031  0.3286899826430347  0.1668645218247520
  0.6713090173569685  0.6676442861163997  0.1668645218247520
  0.6683640651881527  0.3316349348118494  0.1617986527641936
  0.3350335325989690  0.6649654674010339  0.1715903400189097
  0.2759777143212774  0.2240300619013406  0.4027577772803473
  0.4426461420562022  0.0573760464004909  0.4028175678351543
  0.2759671954772939  0.7240318045227088  0.4027946274469488
  0.4426543806390623  0.5573446193609403  0.4028562347461409
  0.7759699462164009  0.2240290537836013  0.4027817113232590
  0.9426409667643256  0.0573580332356766  0.4026867056887795
  0.7759689380986622  0.7240212856787248  0.4027577772803473
  0.9426229535995119  0.5573528579438010  0.4028175678351543
 
  0.00000000E+00  0.00000000E+00  0.00000000E+00
  0.00000000E+00  0.00000000E+00  0.00000000E+00
  0.00000000E+00  0.00000000E+00  0.00000000E+00
  0.00000000E+00  0.00000000E+00  0.00000000E+00
  0.00000000E+00  0.00000000E+00  0.00000000E+00
  0.00000000E+00  0.00000000E+00  0.00000000E+00
  0.00000000E+00  0.00000000E+00  0.00000000E+00
  0.00000000E+00  0.00000000E+00  0.00000000E+00
  0.00000000E+00  0.00000000E+00  0.00000000E+00
  0.00000000E+00  0.00000000E+00  0.00000000E+00
  0.00000000E+00  0.00000000E+00  0.00000000E+00
  0.00000000E+00  0.00000000E+00  0.00000000E+00
  0.00000000E+00  0.00000000E+00  0.00000000E+00
  0.00000000E+00  0.00000000E+00  0.00000000E+00
  0.00000000E+00  0.00000000E+00  0.00000000E+00
  0.00000000E+00  0.00000000E+00  0.00000000E+00
