Graphene-Borophene Hollow 1 with lattice
   1.00000000000000     
     4.3197347140767803    2.4940000000000002    0.0000000000000000
    -4.3197347140767803    2.4940000000000002    0.0000000000000000
     0.0000000000000000    0.0000000000000000   15.0000000000000000
   B    C 
     8     8
Direct
  0.6713700498580668 -0.0020188778387209  0.1668041067863458
  0.3325341299089961 -0.0019103882817643  0.1669439983206627
  0.0020188778387209  0.3286289501419354  0.1668041067863458
  0.0019103882817643  0.6674648700910063  0.1669439983206627
  0.3324468213782347  0.3285450258225098  0.1668784367491327
  0.6714539741774934  0.6675521786217681  0.1668784367491327
  0.6684647795785965  0.3315342204214056  0.1617803523374046
  0.3351979632521852  0.6648010367478177  0.1716642643457291
  0.2758405623463748  0.2241387790709352  0.4027440105187993
  0.4425107693836155  0.0574747339735145  0.4027905024544685
  0.2758446385459013  0.7241543614541014  0.4027692280678767
  0.4425306924561894  0.5574683075438132  0.4028333766356017
  0.7758536637936950  0.2241453362063072  0.4027625362215509
  0.9425200911335422  0.0574789088664601  0.4026681327330287
  0.7758602209290675  0.7241584376536275  0.4027440105187993
  0.9425242660264882  0.5574882306163876  0.4027905024544685
 
  0.00000000E+00  0.00000000E+00  0.00000000E+00
  0.00000000E+00  0.00000000E+00  0.00000000E+00
  0.00000000E+00  0.00000000E+00  0.00000000E+00
  0.00000000E+00  0.00000000E+00  0.00000000E+00
  0.00000000E+00  0.00000000E+00  0.00000000E+00
  0.00000000E+00  0.00000000E+00  0.00000000E+00
  0.00000000E+00  0.00000000E+00  0.00000000E+00
  0.00000000E+00  0.00000000E+00  0.00000000E+00
  0.00000000E+00  0.00000000E+00  0.00000000E+00
  0.00000000E+00  0.00000000E+00  0.00000000E+00
  0.00000000E+00  0.00000000E+00  0.00000000E+00
  0.00000000E+00  0.00000000E+00  0.00000000E+00
  0.00000000E+00  0.00000000E+00  0.00000000E+00
  0.00000000E+00  0.00000000E+00  0.00000000E+00
  0.00000000E+00  0.00000000E+00  0.00000000E+00
  0.00000000E+00  0.00000000E+00  0.00000000E+00
