Graphene-B4C3 Top with lattice parameter
   1.00000000000000     
     4.1889648781053292    2.4184999999999999    0.0000000000000000
    -4.1889648781053292    2.4184999999999999    0.0000000000000000
     0.0000000000000000    0.0000000000000000   15.0000000000000000
   B    C 
     4    11
Direct
  0.0041199273897271  0.0027316264280745  0.1028707343087826
  0.3593186642252334  0.0030457472322636  0.1007600313623615
  0.0038330511330763  0.3576273118627643  0.1007602914173419
  0.6492089157433465  0.6475418975266566  0.1007586990152624
  0.3278702954230740  0.3262866449301774  0.1009299661186101
  0.6805593980523400  0.0029446708510390  0.1009326368274509
  0.0038963272647745  0.6789538161648704  0.1009301989363788
  0.0000733806187338  0.5000190959056302  0.3344491490755429
  0.1667148947436909  0.3334111910341835  0.3344904956480565
  0.0000664268249543  0.0000384214044355  0.3344101803367543
  0.1667703213570718  0.8333778251125308  0.3344945122945452
  0.5000863906039178  0.5000670233456167  0.3344522202501125
  0.6667228377325405  0.3333713519204136  0.3343362549696405
  0.5000380843543208  0.0000301094872655  0.3344470768293479
  0.6666817511998909  0.8333206001274037  0.3344902192764942
 
  0.00000000E+00  0.00000000E+00  0.00000000E+00
  0.00000000E+00  0.00000000E+00  0.00000000E+00
  0.00000000E+00  0.00000000E+00  0.00000000E+00
  0.00000000E+00  0.00000000E+00  0.00000000E+00
  0.00000000E+00  0.00000000E+00  0.00000000E+00
  0.00000000E+00  0.00000000E+00  0.00000000E+00
  0.00000000E+00  0.00000000E+00  0.00000000E+00
  0.00000000E+00  0.00000000E+00  0.00000000E+00
  0.00000000E+00  0.00000000E+00  0.00000000E+00
  0.00000000E+00  0.00000000E+00  0.00000000E+00
  0.00000000E+00  0.00000000E+00  0.00000000E+00
  0.00000000E+00  0.00000000E+00  0.00000000E+00
  0.00000000E+00  0.00000000E+00  0.00000000E+00
  0.00000000E+00  0.00000000E+00  0.00000000E+00
  0.00000000E+00  0.00000000E+00  0.00000000E+00
