Graphene-B4C3 Hollow 1 with lattice para
   1.00000000000000     
     4.1906969289128986    2.4195000000000002    0.0000000000000000
    -4.1906969289128986    2.4195000000000002    0.0000000000000000
     0.0000000000000000    0.0000000000000000   15.0000000000000000
   B    C 
     4    11
Direct
  0.0472759091505991 -0.0355928333072903  0.1046371409261414
  0.4023275815613970 -0.0353980029255703  0.0999009230394806
  0.0471528446013161  0.3193317980393397  0.0999312157505805
  0.6923001913784462  0.6092002941393337  0.0999201571138693
  0.3708180750089910  0.2879031078611878  0.1004100377913789
  0.7236794148590120 -0.0355853605619425  0.1002310169048484
  0.0469827621867855  0.6406213069171691  0.1004483662544364
  0.0734565577074752  0.4224896002454870  0.3382889593263397
  0.2401385911177792  0.2559141948004156  0.3383411747187773
  0.0734911165679781  0.9225214373765830  0.3382731135365438
  0.2401881631484607  0.7558366026577494  0.3382817125068538
  0.5734663248105557  0.4224822787007054  0.3382973240372550
  0.7401155390915535  0.2558578480528468  0.3382004649728688
  0.5734213855098957  0.9224971967442839  0.3383439903340428
  0.7400350988553057  0.7557989757041687  0.3382737361199042
 
  0.00000000E+00  0.00000000E+00  0.00000000E+00
  0.00000000E+00  0.00000000E+00  0.00000000E+00
  0.00000000E+00  0.00000000E+00  0.00000000E+00
  0.00000000E+00  0.00000000E+00  0.00000000E+00
  0.00000000E+00  0.00000000E+00  0.00000000E+00
  0.00000000E+00  0.00000000E+00  0.00000000E+00
  0.00000000E+00  0.00000000E+00  0.00000000E+00
  0.00000000E+00  0.00000000E+00  0.00000000E+00
  0.00000000E+00  0.00000000E+00  0.00000000E+00
  0.00000000E+00  0.00000000E+00  0.00000000E+00
  0.00000000E+00  0.00000000E+00  0.00000000E+00
  0.00000000E+00  0.00000000E+00  0.00000000E+00
  0.00000000E+00  0.00000000E+00  0.00000000E+00
  0.00000000E+00  0.00000000E+00  0.00000000E+00
  0.00000000E+00  0.00000000E+00  0.00000000E+00
