Graphene-Borophene Top with lattice para
   1.00000000000000     
     4.3128065108465039    2.4899999999999998    0.0000000000000000
    -4.3128065108465039    2.4899999999999998    0.0000000000000000
     0.0000000000000000    0.0000000000000000   15.0000000000000000
   B    C 
     8     8
Direct
  0.6685239323581070  0.0000608566209541  0.1668908851474137
  0.3315359242628494  0.0000608566209541  0.1668908851474137
 -0.0000608566209541  0.3314750676418952  0.1668908851474137
 -0.0000608566209541  0.6684630757371526  0.1668908851474137
  0.3315359242628494  0.3314750676418952  0.1668908851474137
  0.6685239323581071  0.6684630757371526  0.1668908851474137
  0.6666659999999993  0.3333330000000032  0.1535802648940170
  0.3333330000000032  0.6666659999999993  0.1794828613541890
  0.1666458488344545  0.3332926976689137  0.4009885970611890
  0.3332892727341835  0.1666441363670894  0.4008681322166441
  0.1666458488344545  0.8333531511655481  0.4009885970611890
  0.3333330000000032  0.6666659999999993  0.4010670964969171
  0.6666659999999993  0.3333330000000032  0.4008209452035877
  0.8333548636329133  0.1666441363670894  0.4008681322166441
  0.6667063023310887  0.8333531511655481  0.4009885970611890
  0.8333548636329133  0.6667097272658190  0.4008681322166441
 
  0.00000000E+00  0.00000000E+00  0.00000000E+00
  0.00000000E+00  0.00000000E+00  0.00000000E+00
  0.00000000E+00  0.00000000E+00  0.00000000E+00
  0.00000000E+00  0.00000000E+00  0.00000000E+00
  0.00000000E+00  0.00000000E+00  0.00000000E+00
  0.00000000E+00  0.00000000E+00  0.00000000E+00
  0.00000000E+00  0.00000000E+00  0.00000000E+00
  0.00000000E+00  0.00000000E+00  0.00000000E+00
  0.00000000E+00  0.00000000E+00  0.00000000E+00
  0.00000000E+00  0.00000000E+00  0.00000000E+00
  0.00000000E+00  0.00000000E+00  0.00000000E+00
  0.00000000E+00  0.00000000E+00  0.00000000E+00
  0.00000000E+00  0.00000000E+00  0.00000000E+00
  0.00000000E+00  0.00000000E+00  0.00000000E+00
  0.00000000E+00  0.00000000E+00  0.00000000E+00
  0.00000000E+00  0.00000000E+00  0.00000000E+00
