Graphene-Borophene Top with lattice para
   1.00000000000000     
     4.3128065108465039    2.4899999999999998    0.0000000000000000
    -4.3128065108465039    2.4899999999999998    0.0000000000000000
     0.0000000000000000    0.0000000000000000   15.0000000000000000
   B    C 
     8     8
Direct
  0.6695916178964476 -0.0001605983116501  0.1664668734441097
  0.3302467837919045 -0.0001605983116501  0.1664668734441097
  0.0001605983116501  0.3304073821035547  0.1664668734441097
  0.0001605983116501  0.6697522162080979  0.1664668734441097
  0.3302467837919045  0.3304073821035547  0.1664668734441097
  0.6695916178964477  0.6697522162080979  0.1664668734441097
  0.6666659999999993  0.3333330000000032  0.1644318078631900
  0.3333330000000032  0.6666659999999993  0.1810006899141685
  0.1696062351170367  0.3392134702340779  0.3996679699107629
  0.3390520491633262  0.1695255245816608  0.3997124413180317
  0.1696062351170367  0.8303927648829659  0.3996679699107629
  0.3333330000000032  0.6666659999999993  0.3996740297166814
  0.6666659999999993  0.3333330000000032  0.3998176648216101
  0.8304734754183420  0.1695255245816608  0.3997124413180316
  0.6607855297659246  0.8303927648829659  0.3996679699107629
  0.8304734754183420  0.6609469508366764  0.3997124413180316
 
  0.00000000E+00  0.00000000E+00  0.00000000E+00
  0.00000000E+00  0.00000000E+00  0.00000000E+00
  0.00000000E+00  0.00000000E+00  0.00000000E+00
  0.00000000E+00  0.00000000E+00  0.00000000E+00
  0.00000000E+00  0.00000000E+00  0.00000000E+00
  0.00000000E+00  0.00000000E+00  0.00000000E+00
  0.00000000E+00  0.00000000E+00  0.00000000E+00
  0.00000000E+00  0.00000000E+00  0.00000000E+00
  0.00000000E+00  0.00000000E+00  0.00000000E+00
  0.00000000E+00  0.00000000E+00  0.00000000E+00
  0.00000000E+00  0.00000000E+00  0.00000000E+00
  0.00000000E+00  0.00000000E+00  0.00000000E+00
  0.00000000E+00  0.00000000E+00  0.00000000E+00
  0.00000000E+00  0.00000000E+00  0.00000000E+00
  0.00000000E+00  0.00000000E+00  0.00000000E+00
  0.00000000E+00  0.00000000E+00  0.00000000E+00
