Graphene-Borophene Hollow 1 with lattice
   1.00000000000000     
     4.3067443330200126    2.4864999999999999    0.0000000000000000
    -4.3067443330200126    2.4864999999999999    0.0000000000000000
     0.0000000000000000    0.0000000000000000   15.0000000000000000
   B    C 
     8     8
Direct
  0.6733548239230496 -0.0045101888354973  0.1675191964219224
  0.3356631806777285 -0.0044268442611998  0.1675195969163254
  0.0045101888354973  0.3266441760769527  0.1675191964219224
  0.0044268442611998  0.6643358193222746  0.1675195969163254
  0.3353597980817547  0.3265431309977292  0.1670399420330110
  0.6734558690022736  0.6646392019182475  0.1670399420330110
  0.6707444163943165  0.3292545836056866  0.1560357212466238
  0.3375830262890914  0.6624159737109112  0.1789384121904625
  0.2734431927153232  0.2265919048116543  0.4021663415457084
  0.4399823847214491  0.0600008525152306  0.4022335247458991
  0.2733801281344606  0.7266188718655421  0.4022561531064831
  0.4401253317009519  0.5598736682990507  0.4023052217774733
  0.7734316932066361  0.2265673067933665  0.4021738200763566
  0.9400157682720800  0.0599832317279225  0.4021334682768785
  0.7734070951883483  0.7265558072846791  0.4021663415457084
  0.9399981474847716  0.5600166152785536  0.4022335247458991
 
  0.00000000E+00  0.00000000E+00  0.00000000E+00
  0.00000000E+00  0.00000000E+00  0.00000000E+00
  0.00000000E+00  0.00000000E+00  0.00000000E+00
  0.00000000E+00  0.00000000E+00  0.00000000E+00
  0.00000000E+00  0.00000000E+00  0.00000000E+00
  0.00000000E+00  0.00000000E+00  0.00000000E+00
  0.00000000E+00  0.00000000E+00  0.00000000E+00
  0.00000000E+00  0.00000000E+00  0.00000000E+00
  0.00000000E+00  0.00000000E+00  0.00000000E+00
  0.00000000E+00  0.00000000E+00  0.00000000E+00
  0.00000000E+00  0.00000000E+00  0.00000000E+00
  0.00000000E+00  0.00000000E+00  0.00000000E+00
  0.00000000E+00  0.00000000E+00  0.00000000E+00
  0.00000000E+00  0.00000000E+00  0.00000000E+00
  0.00000000E+00  0.00000000E+00  0.00000000E+00
  0.00000000E+00  0.00000000E+00  0.00000000E+00
