Graphene-Borophene Hollow 1 with lattice
   1.00000000000000     
     4.3067443330200126    2.4864999999999999    0.0000000000000000
    -4.3067443330200126    2.4864999999999999    0.0000000000000000
     0.0000000000000000    0.0000000000000000   15.0000000000000000
   B    C 
     8     8
Direct
  0.6755130517500145 -0.0065860073376705  0.1677297215052286
  0.3376725881220224 -0.0065160304518189  0.1677983281552708
  0.0065860073376705  0.3244859482499878  0.1677297215052286
  0.0065160304518189  0.6623264118779808  0.1677983281552708
  0.3375161107563155  0.3245422196682611  0.1669539954106984
  0.6754567803317417  0.6624828892436868  0.1669539954106984
  0.6728637061316732  0.3271352938683298  0.1563682673343109
  0.3396454017162059  0.6603535982837967  0.1783368855607765
  0.2712899066418434  0.2287131404243082  0.4021837352553891
  0.4380553766814862  0.0620575826125661  0.4021669377810672
  0.2712917433163987  0.7287072566836039  0.4021455340679910
  0.4379844924759494  0.5620145075240530  0.4022195319577920
  0.7712535285018938  0.2287454714981088  0.4021642087398785
  0.9380098877107674  0.0619891122892349  0.4019001361239538
  0.7712858595756943  0.7287090933581589  0.4021837352553891
  0.9379414173874363  0.5619436233185165  0.4021669377810672
 
  0.00000000E+00  0.00000000E+00  0.00000000E+00
  0.00000000E+00  0.00000000E+00  0.00000000E+00
  0.00000000E+00  0.00000000E+00  0.00000000E+00
  0.00000000E+00  0.00000000E+00  0.00000000E+00
  0.00000000E+00  0.00000000E+00  0.00000000E+00
  0.00000000E+00  0.00000000E+00  0.00000000E+00
  0.00000000E+00  0.00000000E+00  0.00000000E+00
  0.00000000E+00  0.00000000E+00  0.00000000E+00
  0.00000000E+00  0.00000000E+00  0.00000000E+00
  0.00000000E+00  0.00000000E+00  0.00000000E+00
  0.00000000E+00  0.00000000E+00  0.00000000E+00
  0.00000000E+00  0.00000000E+00  0.00000000E+00
  0.00000000E+00  0.00000000E+00  0.00000000E+00
  0.00000000E+00  0.00000000E+00  0.00000000E+00
  0.00000000E+00  0.00000000E+00  0.00000000E+00
  0.00000000E+00  0.00000000E+00  0.00000000E+00
