BC3 with lattice parameter 5.169        
   1.00000000000000     
     4.4764850000000003    2.5844999999999998    0.0000000000000000
    -4.4764850000000003    2.5844999999999998    0.0000000000000000
     0.0000000000000000    0.0000000000000000   15.0000000000000000
   B    C 
     2     6
Direct
  0.3383342045493428  0.6691650880496329  0.2500000000000000
  0.6716663147049222  0.3358318889025692  0.2500000000000000
  0.1637461272480733  0.3199998919485206  0.2500000000000000
  0.3224998836190732  0.1612503569127033  0.2500000000000000
  0.1637543411570110  0.8437488985873909  0.2500000000000000
  0.8462441229063463  0.1612508618687746  0.2500000000000000
  0.6874996159055280  0.8437500259735710  0.2500000000000000
  0.8462513899097056  0.6849989877568368  0.2500000000000000
 
  0.00000000E+00  0.00000000E+00  0.00000000E+00
  0.00000000E+00  0.00000000E+00  0.00000000E+00
  0.00000000E+00  0.00000000E+00  0.00000000E+00
  0.00000000E+00  0.00000000E+00  0.00000000E+00
  0.00000000E+00  0.00000000E+00  0.00000000E+00
  0.00000000E+00  0.00000000E+00  0.00000000E+00
  0.00000000E+00  0.00000000E+00  0.00000000E+00
  0.00000000E+00  0.00000000E+00  0.00000000E+00
