Graphene-Borophene Top with lattice para
   1.00000000000000     
     4.3206007394805637    2.4944999999999999    0.0000000000000000
    -4.3206007394805637    2.4944999999999999    0.0000000000000000
     0.0000000000000000    0.0000000000000000   15.0000000000000000
   B    C 
     8     8
Direct
  0.6684462903864580  0.0000405362805643  0.1668953004783611
  0.3315932458941095  0.0000405362805643  0.1668953004783610
 -0.0000405362805643  0.3315527096135448  0.1668953004783610
 -0.0000405362805643  0.6684057541058936  0.1668953004783610
  0.3315932458941094  0.3315527096135448  0.1668953004783610
  0.6684462903864580  0.6684057541058936  0.1668953004783611
  0.6666659999999993  0.3333330000000032  0.1543130144551516
  0.3333330000000032  0.6666659999999993  0.1793043453047101
  0.1666483334408570  0.3332976668817186  0.4009059262104379
  0.3333354936104185  0.1666672468052070  0.4008026784021217
  0.1666483334408570  0.8333506665591451  0.4009059262104379
  0.3333330000000032  0.6666659999999993  0.4009804476951145
  0.6666659999999993  0.3333330000000032  0.4007712425038706
  0.8333317531947959  0.1666672468052070  0.4008026784021217
  0.6667013331182842  0.8333506665591451  0.4009059262104379
  0.8333317531947959  0.6666635063895834  0.4008026784021217
 
  0.00000000E+00  0.00000000E+00  0.00000000E+00
  0.00000000E+00  0.00000000E+00  0.00000000E+00
  0.00000000E+00  0.00000000E+00  0.00000000E+00
  0.00000000E+00  0.00000000E+00  0.00000000E+00
  0.00000000E+00  0.00000000E+00  0.00000000E+00
  0.00000000E+00  0.00000000E+00  0.00000000E+00
  0.00000000E+00  0.00000000E+00  0.00000000E+00
  0.00000000E+00  0.00000000E+00  0.00000000E+00
  0.00000000E+00  0.00000000E+00  0.00000000E+00
  0.00000000E+00  0.00000000E+00  0.00000000E+00
  0.00000000E+00  0.00000000E+00  0.00000000E+00
  0.00000000E+00  0.00000000E+00  0.00000000E+00
  0.00000000E+00  0.00000000E+00  0.00000000E+00
  0.00000000E+00  0.00000000E+00  0.00000000E+00
  0.00000000E+00  0.00000000E+00  0.00000000E+00
  0.00000000E+00  0.00000000E+00  0.00000000E+00
