Graphene-B4C3 Hollow 1 with lattice para
   1.00000000000000     
     4.1967591067393890    2.4229999999999996    0.0000000000000000
    -4.1967591067393890    2.4229999999999996    0.0000000000000000
     0.0000000000000000    0.0000000000000000   15.0000000000000000
   B    C 
     4    11
Direct
  0.0418928601765225 -0.0308568760329961  0.1051999882290472
  0.3971462549652724 -0.0306174756803339  0.1003244935770044
  0.0419028390158446  0.3241008782467571  0.0998755925696326
  0.6869377340817460  0.6138425434105200  0.1000354126335696
  0.3655441840934444  0.2923858961864689  0.1005618996313044
  0.7185010437146186 -0.0307381596898691  0.1007819807350778
  0.0412420246966117  0.6454114318132221  0.1005851443074189
  0.0781196972976760  0.4184043284048451  0.3380545611378261
  0.2447514116018635  0.2516624474553192  0.3380590043878564
  0.0781680623292113  0.9184701016774561  0.3380042432527099
  0.2448403634967813  0.7516677274795602  0.3380691323485391
  0.5781793057246005  0.4184290426293838  0.3380838936948388
  0.7448015235647595  0.2516978327454864  0.3379991759637975
  0.5781103261369454  0.9183843934531064  0.3381266038218908
  0.7447119246596530  0.7516343323455408  0.3380182070428073
 
  0.00000000E+00  0.00000000E+00  0.00000000E+00
  0.00000000E+00  0.00000000E+00  0.00000000E+00
  0.00000000E+00  0.00000000E+00  0.00000000E+00
  0.00000000E+00  0.00000000E+00  0.00000000E+00
  0.00000000E+00  0.00000000E+00  0.00000000E+00
  0.00000000E+00  0.00000000E+00  0.00000000E+00
  0.00000000E+00  0.00000000E+00  0.00000000E+00
  0.00000000E+00  0.00000000E+00  0.00000000E+00
  0.00000000E+00  0.00000000E+00  0.00000000E+00
  0.00000000E+00  0.00000000E+00  0.00000000E+00
  0.00000000E+00  0.00000000E+00  0.00000000E+00
  0.00000000E+00  0.00000000E+00  0.00000000E+00
  0.00000000E+00  0.00000000E+00  0.00000000E+00
  0.00000000E+00  0.00000000E+00  0.00000000E+00
  0.00000000E+00  0.00000000E+00  0.00000000E+00
