Graphene-Borophene Hollow 2 with lattice
   1.00000000000000     
     4.3102084346351512    2.4885000000000002    0.0000000000000000
    -4.3102084346351512    2.4885000000000002    0.0000000000000000
     0.0000000000000000    0.0000000000000000   15.0000000000000000
   B    C 
     8     8
Direct
  0.6695156098182820 -0.0000670908301603  0.1668992528766372
  0.3304162993515599 -0.0000670908301603  0.1668992528766372
  0.0000670908301603  0.3304833901817202  0.1668992528766372
  0.0000670908301603  0.6695827006484428  0.1668992528766372
  0.3304162993515600  0.3304833901817202  0.1668992528766372
  0.6695156098182820  0.6695827006484428  0.1668992528766372
  0.6666659999999993  0.3333330000000032  0.1607810382746527
  0.3333330000000032  0.6666659999999993  0.1736915847257520
  0.3333564475075877  0.1666782237538010  0.4035966957844549
  0.5000287297089689  0.0000574594179365  0.4036762992924379
  0.3333326666666636  0.6666663333333389  0.4036261168591385
  0.5000287297089689  0.4999702702910344  0.4036762992924379
  0.8333207762462013  0.1666782237538010  0.4035966957844549
  0.9999996666666675  0.9999993333333350  0.4034867576499456
  0.8333207762462013  0.6666425524924144  0.4035966957844549
 -0.0000584594179341  0.4999702702910344  0.4036762992924379
 
  0.00000000E+00  0.00000000E+00  0.00000000E+00
  0.00000000E+00  0.00000000E+00  0.00000000E+00
  0.00000000E+00  0.00000000E+00  0.00000000E+00
  0.00000000E+00  0.00000000E+00  0.00000000E+00
  0.00000000E+00  0.00000000E+00  0.00000000E+00
  0.00000000E+00  0.00000000E+00  0.00000000E+00
  0.00000000E+00  0.00000000E+00  0.00000000E+00
  0.00000000E+00  0.00000000E+00  0.00000000E+00
  0.00000000E+00  0.00000000E+00  0.00000000E+00
  0.00000000E+00  0.00000000E+00  0.00000000E+00
  0.00000000E+00  0.00000000E+00  0.00000000E+00
  0.00000000E+00  0.00000000E+00  0.00000000E+00
  0.00000000E+00  0.00000000E+00  0.00000000E+00
  0.00000000E+00  0.00000000E+00  0.00000000E+00
  0.00000000E+00  0.00000000E+00  0.00000000E+00
  0.00000000E+00  0.00000000E+00  0.00000000E+00
