k-points 28
0
Gamma
28    28    1
0    0    0