Graphene-BC3 Hollow with lattice paramet
   1.00000000000000     
     4.3604379080546485    2.5175000000000001    0.0000000000000000
    -4.3604379080546485    2.5175000000000001    0.0000000000000000
     0.0000000000000000    0.0000000000000000   15.0000000000000000
   B    C 
     2    14
Direct
  0.3383443845279246  0.6691709752207607  0.1001709323153817
  0.6716933500335713  0.3358207864930154  0.0999791596046001
  0.1672250355085303  0.3269761419513071  0.0999442328258016
  0.3292071866245189  0.1646126561842851  0.1000160963422452
  0.1672556746596050  0.8402671475370428  0.0999442338938970
  0.8428586053672351  0.1645990144007161  0.1000156344694890
  0.6805202790831011  0.8402604416792347  0.0999439532597635
  0.8428836744405368  0.6782848646725869  0.1000156210697698
  0.3333772413701733  0.1666875202473652  0.3255428700670049
  0.5001264271542015  0.0002703928134793  0.3255852745531913
  0.3333289412816230  0.6666634234998182  0.3253267616980096
  0.5001264281703713  0.4998572192294519  0.3255852655754288
  0.8333196266898447  0.1666915389442990  0.3255393784331274
  0.0000049407374927  0.0000030588812390  0.3255312058381234
  0.8333196637662771  0.6666259585996672  0.3255394016157336
  0.9997338739183270  0.4998675263124260  0.3255866451051050
 
  0.00000000E+00  0.00000000E+00  0.00000000E+00
  0.00000000E+00  0.00000000E+00  0.00000000E+00
  0.00000000E+00  0.00000000E+00  0.00000000E+00
  0.00000000E+00  0.00000000E+00  0.00000000E+00
  0.00000000E+00  0.00000000E+00  0.00000000E+00
  0.00000000E+00  0.00000000E+00  0.00000000E+00
  0.00000000E+00  0.00000000E+00  0.00000000E+00
  0.00000000E+00  0.00000000E+00  0.00000000E+00
  0.00000000E+00  0.00000000E+00  0.00000000E+00
  0.00000000E+00  0.00000000E+00  0.00000000E+00
  0.00000000E+00  0.00000000E+00  0.00000000E+00
  0.00000000E+00  0.00000000E+00  0.00000000E+00
  0.00000000E+00  0.00000000E+00  0.00000000E+00
  0.00000000E+00  0.00000000E+00  0.00000000E+00
  0.00000000E+00  0.00000000E+00  0.00000000E+00
  0.00000000E+00  0.00000000E+00  0.00000000E+00
