k-points 36
0
Gamma
36    36    1
0    0    0