Graphene-Borophene Hollow 2 with lattice
   1.00000000000000     
     4.2781654946951262    2.4699999999999998    0.0000000000000000
    -4.2781654946951262    2.4699999999999998    0.0000000000000000
     0.0000000000000000    0.0000000000000000   15.0000000000000000
   B    C 
     8     8
Direct
  0.6690401868444911 -0.0001627756268222  0.1661919167671438
  0.3307960375286894 -0.0001627756268222  0.1661919167671438
  0.0001627756268222  0.3309588131555120  0.1661919167671438
  0.0001627756268222  0.6692029624713133  0.1661919167671438
  0.3307960375286894  0.3309588131555120  0.1661919167671438
  0.6690401868444913  0.6692029624713134  0.1661919167671438
  0.6666659999999993  0.3333330000000032  0.1790008519129642
  0.3333330000000032  0.6666659999999993  0.1522688601346762
  0.3333467611084324  0.1666733805542233  0.4045334871052289
  0.5000136374082325  0.0000272748164657  0.4045646398117287
  0.3333326666666636  0.6666663333333389  0.4045160397748396
  0.5000136374082325  0.4999853625917696  0.4045646398117287
  0.8333256194457789  0.1666733805542233  0.4045334871052289
  0.9999996666666675  0.9999993333333350  0.4045683668237758
  0.8333256194457790  0.6666522388915704  0.4045334871052289
 -0.0000282748164632  0.4999853625917696  0.4045646398117287
 
  0.00000000E+00  0.00000000E+00  0.00000000E+00
  0.00000000E+00  0.00000000E+00  0.00000000E+00
  0.00000000E+00  0.00000000E+00  0.00000000E+00
  0.00000000E+00  0.00000000E+00  0.00000000E+00
  0.00000000E+00  0.00000000E+00  0.00000000E+00
  0.00000000E+00  0.00000000E+00  0.00000000E+00
  0.00000000E+00  0.00000000E+00  0.00000000E+00
  0.00000000E+00  0.00000000E+00  0.00000000E+00
  0.00000000E+00  0.00000000E+00  0.00000000E+00
  0.00000000E+00  0.00000000E+00  0.00000000E+00
  0.00000000E+00  0.00000000E+00  0.00000000E+00
  0.00000000E+00  0.00000000E+00  0.00000000E+00
  0.00000000E+00  0.00000000E+00  0.00000000E+00
  0.00000000E+00  0.00000000E+00  0.00000000E+00
  0.00000000E+00  0.00000000E+00  0.00000000E+00
  0.00000000E+00  0.00000000E+00  0.00000000E+00
