Graphene-B4C3 Top with lattice parameter
   1.00000000000000     
     4.1222809220139274    2.3799999999999999    0.0000000000000000
    -4.1222809220139274    2.3799999999999999    0.0000000000000000
     0.0000000000000000    0.0000000000000000   15.0000000000000000
   B    C 
     4    11
Direct
  0.0040680488022743  0.0026847965960250  0.1148777952144827
  0.3579285733566131  0.0028956705893533  0.0983318043208895
  0.0038991702527120  0.3563687900676821  0.0983324101121806
  0.6504039245027509  0.6488619086713020  0.0983293679444057
  0.3279411850246083  0.3263806801055893  0.1002195970949463
  0.6803994779402246  0.0028979456825146  0.1002279190875048
  0.0038778799380714  0.6788292872721260  0.1002263734184573
  0.0001167007003469  0.5000659897567353  0.3341298212192740
  0.1667927074178099  0.3334861911411606  0.3341716483239665
  0.0000965780428847  0.0000632657704949  0.3340405658857644
  0.1668220658584213  0.8333684150829985  0.3341762555067365
  0.5000980705863646  0.5000848757921356  0.3341324946376441
  0.6667633110388377  0.3333981511912306  0.3340157376426158
  0.5000781539597055  0.0000441478477530  0.3341290663920344
  0.6666748192450679  0.8333372177662247  0.3341718098657802
 
  0.00000000E+00  0.00000000E+00  0.00000000E+00
  0.00000000E+00  0.00000000E+00  0.00000000E+00
  0.00000000E+00  0.00000000E+00  0.00000000E+00
  0.00000000E+00  0.00000000E+00  0.00000000E+00
  0.00000000E+00  0.00000000E+00  0.00000000E+00
  0.00000000E+00  0.00000000E+00  0.00000000E+00
  0.00000000E+00  0.00000000E+00  0.00000000E+00
  0.00000000E+00  0.00000000E+00  0.00000000E+00
  0.00000000E+00  0.00000000E+00  0.00000000E+00
  0.00000000E+00  0.00000000E+00  0.00000000E+00
  0.00000000E+00  0.00000000E+00  0.00000000E+00
  0.00000000E+00  0.00000000E+00  0.00000000E+00
  0.00000000E+00  0.00000000E+00  0.00000000E+00
  0.00000000E+00  0.00000000E+00  0.00000000E+00
  0.00000000E+00  0.00000000E+00  0.00000000E+00
