Graphene-B4C3 Hollow 2 with lattice para
   1.00000000000000     
     4.1993571829507426    2.4245000000000001    0.0000000000000000
    -4.1993571829507426    2.4245000000000001    0.0000000000000000
     0.0000000000000000    0.0000000000000000   15.0000000000000000
   B    C 
     4    11
Direct
  0.0042969524483820  0.0028527056264188  0.1017798741840556
  0.3594540752610892  0.0028586896202595  0.1009021253545805
  0.0043057955946463  0.3580101198639438  0.1009042232669749
  0.6491478957256469  0.6477007266010588  0.1009082408256904
  0.3279497512674588  0.3265024411604593  0.1009461128849069
  0.6806596489316480  0.0028594216885627  0.1009462477597635
  0.0043062186326207  0.6792131292181649  0.1009464824233310
  0.1665430572174565  0.3332595556987064  0.3380168209535400
  0.3332294709253264  0.1665785272286902  0.3380185511834219
  0.1665795437185853  0.8332795897468666  0.3380207607394765
  0.3332329329777600  0.6665999761897130  0.3379022011932001
  0.6665639358996713  0.3332615563578792  0.3379022030403772
  0.8332487603415536  0.1666152960947437  0.3380200936121890
  0.6665613835299171  0.8332443851323801  0.3380165621327588
  0.8332145775282449  0.6665978797721660  0.3380155004457613
 
  0.00000000E+00  0.00000000E+00  0.00000000E+00
  0.00000000E+00  0.00000000E+00  0.00000000E+00
  0.00000000E+00  0.00000000E+00  0.00000000E+00
  0.00000000E+00  0.00000000E+00  0.00000000E+00
  0.00000000E+00  0.00000000E+00  0.00000000E+00
  0.00000000E+00  0.00000000E+00  0.00000000E+00
  0.00000000E+00  0.00000000E+00  0.00000000E+00
  0.00000000E+00  0.00000000E+00  0.00000000E+00
  0.00000000E+00  0.00000000E+00  0.00000000E+00
  0.00000000E+00  0.00000000E+00  0.00000000E+00
  0.00000000E+00  0.00000000E+00  0.00000000E+00
  0.00000000E+00  0.00000000E+00  0.00000000E+00
  0.00000000E+00  0.00000000E+00  0.00000000E+00
  0.00000000E+00  0.00000000E+00  0.00000000E+00
  0.00000000E+00  0.00000000E+00  0.00000000E+00
