Graphene-B4C3 Top with lattice parameter
   1.00000000000000     
     4.1893073996808665    2.4179443628145179    0.0011694015540942
    -4.1894419303542882    2.4181759326419727    0.0015988864913465
     0.0003789109765460    0.0107252322048044    7.5764515826217158
   B    C 
     4    11
Direct
  0.0026110799633297  0.0015688940464699 -0.0056736495687135
  0.3567390745406953  0.0026663599497063 -0.0328743473417841
  0.0022648999275793  0.3550597065007940 -0.0338797541330773
  0.6492582887644111  0.6479630092997045 -0.0311521827875102
  0.3261636249660312  0.3246794004159388 -0.0317749311117401
  0.6800596602294640  0.0028185880433313 -0.0290095432194218
  0.0021602824300032  0.6783300812312852 -0.0283595807947034
  0.0010711858284747  0.5005922731654261  0.4467001925867440
  0.1678876624255865  0.3341773151875160  0.4469942633839500
  0.0012834547979000  0.0007845662117910  0.4455407665373541
  0.1682116746758216  0.8343482478693152  0.4467772342411583
  0.5014921070537264  0.5008570885039481  0.4466827451019015
  0.6678161156104260  0.3340637835542865  0.4471601606104331
  0.5011384386146566  0.0009687282136208  0.4464240068186164
  0.6678031168385868  0.8338892911401927  0.4467572863434832
 
  0.00000000E+00  0.00000000E+00  0.00000000E+00
  0.00000000E+00  0.00000000E+00  0.00000000E+00
  0.00000000E+00  0.00000000E+00  0.00000000E+00
  0.00000000E+00  0.00000000E+00  0.00000000E+00
  0.00000000E+00  0.00000000E+00  0.00000000E+00
  0.00000000E+00  0.00000000E+00  0.00000000E+00
  0.00000000E+00  0.00000000E+00  0.00000000E+00
  0.00000000E+00  0.00000000E+00  0.00000000E+00
  0.00000000E+00  0.00000000E+00  0.00000000E+00
  0.00000000E+00  0.00000000E+00  0.00000000E+00
  0.00000000E+00  0.00000000E+00  0.00000000E+00
  0.00000000E+00  0.00000000E+00  0.00000000E+00
  0.00000000E+00  0.00000000E+00  0.00000000E+00
  0.00000000E+00  0.00000000E+00  0.00000000E+00
  0.00000000E+00  0.00000000E+00  0.00000000E+00
