Graphene-B4C3 Top with lattice parameter
   1.00000000000000     
     4.1958930813356048    2.4224999999999999    0.0000000000000000
    -4.1958930813356048    2.4224999999999999    0.0000000000000000
     0.0000000000000000    0.0000000000000000   15.0000000000000000
   B    C 
     4    11
Direct
  0.0040305226747810  0.0026796945873929  0.1013640953409937
  0.3592271313126211  0.0029592940818382  0.1004763930036812
  0.0037422594944302  0.3575942069505589  0.1004771351495777
  0.6491197272736624  0.6474857841331918  0.1004738292411764
  0.3277685562641557  0.3261334059245422  0.1005073892906228
  0.6805772212434263  0.0029612108897333  0.1005087317663259
  0.0037451625470184  0.6789463128525207  0.1005066529434586
  0.0001518001510732  0.5000742771501050  0.3349027856748645
  0.1668046526299126  0.3334675197196087  0.3349394565946941
  0.0001369192431937  0.0000841357752033  0.3348639340566756
  0.1668465782575001  0.8334138071557318  0.3349433577373956
  0.5001477853370762  0.5001109237584488  0.3349053867153952
  0.6668011600356452  0.3334189036956838  0.3348027754008541
  0.5001100157595963  0.0000685401308646  0.3349011649432134
  0.6667511744426005  0.8333693165279014  0.3349395788077526
 
  0.00000000E+00  0.00000000E+00  0.00000000E+00
  0.00000000E+00  0.00000000E+00  0.00000000E+00
  0.00000000E+00  0.00000000E+00  0.00000000E+00
  0.00000000E+00  0.00000000E+00  0.00000000E+00
  0.00000000E+00  0.00000000E+00  0.00000000E+00
  0.00000000E+00  0.00000000E+00  0.00000000E+00
  0.00000000E+00  0.00000000E+00  0.00000000E+00
  0.00000000E+00  0.00000000E+00  0.00000000E+00
  0.00000000E+00  0.00000000E+00  0.00000000E+00
  0.00000000E+00  0.00000000E+00  0.00000000E+00
  0.00000000E+00  0.00000000E+00  0.00000000E+00
  0.00000000E+00  0.00000000E+00  0.00000000E+00
  0.00000000E+00  0.00000000E+00  0.00000000E+00
  0.00000000E+00  0.00000000E+00  0.00000000E+00
  0.00000000E+00  0.00000000E+00  0.00000000E+00
