Graphene-Borophene Bridge with lattice p
   1.00000000000000     
     4.3214667648843470    2.4949999999999992    0.0000000000000000
    -4.3214667648843470    2.4949999999999992    0.0000000000000000
     0.0000000000000000    0.0000000000000000   15.0000000000000000
   B    C 
     8     8
Direct
  0.6759795479388905 -0.0074826656149000  0.1671610136643518
  0.3384359326875160 -0.0073402150622479  0.1662664146721666
  0.0074826656149000  0.3240194520611117  0.1671610136643518
  0.0073402150622479  0.6615630673124868  0.1662664146721666
  0.3382272343943968  0.3235812281541089  0.1662551346992454
  0.6764177718458932  0.6617717656056058  0.1662551346992454
  0.6733722639376940  0.3266267360623085  0.1586480072095432
  0.3400657916853799  0.6599332083146228  0.1764058294363448
  0.2426619547593324  0.2572209516059314  0.4021104634358987
  0.4095655797120989  0.0904391100526051  0.4023113993519541
  0.2428358319217427  0.7571631680782598  0.4022542639937357
  0.4097375911503472  0.5902614088496555  0.4024845264677345
  0.7426897450875560  0.2573092549124467  0.4022210332687929
  0.9095096025272387  0.0904893974727638  0.4023108213099865
  0.7427780483940715  0.7573370452406707  0.4021104634358987
  0.9095598899473972  0.5904334202879037  0.4023113993519541
 
  0.00000000E+00  0.00000000E+00  0.00000000E+00
  0.00000000E+00  0.00000000E+00  0.00000000E+00
  0.00000000E+00  0.00000000E+00  0.00000000E+00
  0.00000000E+00  0.00000000E+00  0.00000000E+00
  0.00000000E+00  0.00000000E+00  0.00000000E+00
  0.00000000E+00  0.00000000E+00  0.00000000E+00
  0.00000000E+00  0.00000000E+00  0.00000000E+00
  0.00000000E+00  0.00000000E+00  0.00000000E+00
  0.00000000E+00  0.00000000E+00  0.00000000E+00
  0.00000000E+00  0.00000000E+00  0.00000000E+00
  0.00000000E+00  0.00000000E+00  0.00000000E+00
  0.00000000E+00  0.00000000E+00  0.00000000E+00
  0.00000000E+00  0.00000000E+00  0.00000000E+00
  0.00000000E+00  0.00000000E+00  0.00000000E+00
  0.00000000E+00  0.00000000E+00  0.00000000E+00
  0.00000000E+00  0.00000000E+00  0.00000000E+00
