Graphene-Borophene Hollow 2 with lattice
   1.00000000000000     
     4.2998161297897379    2.4824999999999999    0.0000000000000000
    -4.2998161297897379    2.4824999999999999    0.0000000000000000
     0.0000000000000000    0.0000000000000000   15.0000000000000000
   B    C 
     8     8
Direct
  0.6694077794754961 -0.0000806772105397  0.1671320640943768
  0.3305105433139660 -0.0000806772105397  0.1671320640943768
  0.0000806772105397  0.3305912205245056  0.1671320640943768
  0.0000806772105397  0.6694884566860362  0.1671320640943768
  0.3305105433139660  0.3305912205245056  0.1671320640943768
  0.6694077794754961  0.6694884566860362  0.1671320640943768
  0.6666659999999993  0.3333330000000032  0.1584457516103001
  0.3333330000000032  0.6666659999999993  0.1767180504440249
  0.3333543426271063  0.1666771713135602  0.4033335606962984
  0.5000253529875501  0.0000507059750999  0.4034234729951073
  0.3333326666666636  0.6666663333333389  0.4033779805244401
  0.5000253529875501  0.4999736470124528  0.4034234729951073
  0.8333218286864424  0.1666771713135603  0.4033335606962984
  0.9999996666666675  0.9999993333333350  0.4031947317807481
  0.8333218286864424  0.6666446573728962  0.4033335606962984
 -0.0000517059750974  0.4999736470124528  0.4034234729951073
 
  0.00000000E+00  0.00000000E+00  0.00000000E+00
  0.00000000E+00  0.00000000E+00  0.00000000E+00
  0.00000000E+00  0.00000000E+00  0.00000000E+00
  0.00000000E+00  0.00000000E+00  0.00000000E+00
  0.00000000E+00  0.00000000E+00  0.00000000E+00
  0.00000000E+00  0.00000000E+00  0.00000000E+00
  0.00000000E+00  0.00000000E+00  0.00000000E+00
  0.00000000E+00  0.00000000E+00  0.00000000E+00
  0.00000000E+00  0.00000000E+00  0.00000000E+00
  0.00000000E+00  0.00000000E+00  0.00000000E+00
  0.00000000E+00  0.00000000E+00  0.00000000E+00
  0.00000000E+00  0.00000000E+00  0.00000000E+00
  0.00000000E+00  0.00000000E+00  0.00000000E+00
  0.00000000E+00  0.00000000E+00  0.00000000E+00
  0.00000000E+00  0.00000000E+00  0.00000000E+00
  0.00000000E+00  0.00000000E+00  0.00000000E+00
