Graphene-B4C3 Hollow 2 with lattice para
   1.00000000000000     
     4.2088834623923699    2.4299999999999988    0.0000000000000000
    -4.2088834623923699    2.4299999999999988    0.0000000000000000
     0.0000000000000000    0.0000000000000000   15.0000000000000000
   B    C 
     4    11
Direct
  0.0044323617214146  0.0029467619346957  0.0997235293440751
  0.3595855511073611  0.0029534246080310  0.1008803922746614
  0.0044427295797828  0.3581004728871223  0.1008826852463298
  0.6492866344219744  0.6477973591357025  0.1008913583586278
  0.3279801855632954  0.3264924176920975  0.1006775329844494
  0.6808992977421057  0.0029513265044935  0.1006850512011569
  0.0044385962276063  0.6794116586907867  0.1006870109986928
  0.1664260833365510  0.3331809937895741  0.3383772355492602
  0.3331120958115347  0.1664942179234687  0.3383789910881188
  0.1664659904087998  0.8332015428276961  0.3383814230292616
  0.3331120259564976  0.6665146954927098  0.3382738437402845
  0.6664446069555449  0.3331802907066444  0.3382737424440734
  0.8331314472906003  0.1665342466928705  0.3383805414502233
  0.6664443024051685  0.8331609049752404  0.3383767772618112
  0.8330920914717705  0.6665136861388785  0.3383758850290004
 
  0.00000000E+00  0.00000000E+00  0.00000000E+00
  0.00000000E+00  0.00000000E+00  0.00000000E+00
  0.00000000E+00  0.00000000E+00  0.00000000E+00
  0.00000000E+00  0.00000000E+00  0.00000000E+00
  0.00000000E+00  0.00000000E+00  0.00000000E+00
  0.00000000E+00  0.00000000E+00  0.00000000E+00
  0.00000000E+00  0.00000000E+00  0.00000000E+00
  0.00000000E+00  0.00000000E+00  0.00000000E+00
  0.00000000E+00  0.00000000E+00  0.00000000E+00
  0.00000000E+00  0.00000000E+00  0.00000000E+00
  0.00000000E+00  0.00000000E+00  0.00000000E+00
  0.00000000E+00  0.00000000E+00  0.00000000E+00
  0.00000000E+00  0.00000000E+00  0.00000000E+00
  0.00000000E+00  0.00000000E+00  0.00000000E+00
  0.00000000E+00  0.00000000E+00  0.00000000E+00
