Graphene-Borophene Hollow 2 with lattice
   1.00000000000000     
     4.3067443330200126    2.4864999999999999    0.0000000000000000
    -4.3067443330200126    2.4864999999999999    0.0000000000000000
     0.0000000000000000    0.0000000000000000   15.0000000000000000
   B    C 
     8     8
Direct
  0.6694799772835489 -0.0000764247114053  0.1669339147764319
  0.3304425980050485 -0.0000764247114053  0.1669339147764319
  0.0000764247114053  0.3305190227164537  0.1669339147764319
  0.0000764247114053  0.6695564019949536  0.1669339147764319
  0.3304425980050485  0.3305190227164538  0.1669339147764319
  0.6694799772835489  0.6695564019949537  0.1669339147764319
  0.6666659999999993  0.3333330000000032  0.1600153364692566
  0.3333330000000032  0.6666659999999993  0.1752597290331878
  0.3333516972611901  0.1666758486306021  0.4034896980841614
  0.5000244069335358  0.0000488138670715  0.4035325040595581
  0.3333326666666636  0.6666663333333389  0.4034395342527435
  0.5000244069335358  0.4999745930664665  0.4035325040595581
  0.8333231513694002  0.1666758486306021  0.4034896980841614
  0.9999996666666675  0.9999993333333350  0.4034153051550545
  0.8333231513694002  0.6666473027388125  0.4034896980841614
 -0.0000498138670692  0.4999745930664665  0.4035325040595581
 
  0.00000000E+00  0.00000000E+00  0.00000000E+00
  0.00000000E+00  0.00000000E+00  0.00000000E+00
  0.00000000E+00  0.00000000E+00  0.00000000E+00
  0.00000000E+00  0.00000000E+00  0.00000000E+00
  0.00000000E+00  0.00000000E+00  0.00000000E+00
  0.00000000E+00  0.00000000E+00  0.00000000E+00
  0.00000000E+00  0.00000000E+00  0.00000000E+00
  0.00000000E+00  0.00000000E+00  0.00000000E+00
  0.00000000E+00  0.00000000E+00  0.00000000E+00
  0.00000000E+00  0.00000000E+00  0.00000000E+00
  0.00000000E+00  0.00000000E+00  0.00000000E+00
  0.00000000E+00  0.00000000E+00  0.00000000E+00
  0.00000000E+00  0.00000000E+00  0.00000000E+00
  0.00000000E+00  0.00000000E+00  0.00000000E+00
  0.00000000E+00  0.00000000E+00  0.00000000E+00
  0.00000000E+00  0.00000000E+00  0.00000000E+00
