Graphene-BC3 Bridge with lattice paramet
   1.00000000000000     
     4.3387872729600367    2.5049999999999999    0.0000000000000000
    -4.3387872729600367    2.5049999999999999    0.0000000000000000
     0.0000000000000000    0.0000000000000000   15.0000000000000000
   B    C 
     2    14
Direct
  0.3170900998379188  0.6917404735013166  0.1017321720959845
  0.6504703031995714  0.3583636712155677  0.1014175312639793
  0.1436491692288261  0.3447426876391360  0.1014948198363554
  0.3033953488815407  0.1848983927981796  0.1016039606896249
  0.1435819047920707  0.8652786088646429  0.1016781604344188
  0.8239826714236621  0.1848388578665629  0.1013438817309765
  0.6640788266944959  0.8651544921180360  0.1013835382237298
  0.8239577034150533  0.7054501026693683  0.1014756697142116
  0.2712178207746606  0.2273495281735117  0.3249111285404066
  0.4378076370455035  0.0608133342817122  0.3249401116761232
  0.2711925717384046  0.7274753937216132  0.3245526343272172
  0.4379325549304969  0.5607296234209193  0.3247337737387893
  0.7712154073823707  0.2274465999535969  0.3246851625598450
  0.9379204024652521  0.0607408030426858  0.3248735384604985
  0.7713187300783025  0.7274511630621299  0.3249108047534474
  0.9378475147785752  0.5608516010043464  0.3249297786210479
 
  0.00000000E+00  0.00000000E+00  0.00000000E+00
  0.00000000E+00  0.00000000E+00  0.00000000E+00
  0.00000000E+00  0.00000000E+00  0.00000000E+00
  0.00000000E+00  0.00000000E+00  0.00000000E+00
  0.00000000E+00  0.00000000E+00  0.00000000E+00
  0.00000000E+00  0.00000000E+00  0.00000000E+00
  0.00000000E+00  0.00000000E+00  0.00000000E+00
  0.00000000E+00  0.00000000E+00  0.00000000E+00
  0.00000000E+00  0.00000000E+00  0.00000000E+00
  0.00000000E+00  0.00000000E+00  0.00000000E+00
  0.00000000E+00  0.00000000E+00  0.00000000E+00
  0.00000000E+00  0.00000000E+00  0.00000000E+00
  0.00000000E+00  0.00000000E+00  0.00000000E+00
  0.00000000E+00  0.00000000E+00  0.00000000E+00
  0.00000000E+00  0.00000000E+00  0.00000000E+00
  0.00000000E+00  0.00000000E+00  0.00000000E+00
