Graphene-BC3 Hollow with lattice paramet
   1.00000000000000     
     4.3128065108465039    2.4899999999999998    0.0000000000000000
    -4.3128065108465039    2.4899999999999998    0.0000000000000000
     0.0000000000000000    0.0000000000000000   15.0000000000000000
   B    C 
     2    14
Direct
  0.3382286745279767  0.6691117317318526  0.1007574645365597
  0.6715550512104421  0.3357823604883617  0.1004225841254137
  0.1649206412234745  0.3224890744775467  0.1004825778453337
  0.3248628902270116  0.1624339410549817  0.1004872204015506
  0.1649154852791651  0.8424284697964531  0.1004828462934235
  0.8449058484639543  0.1624258252847592  0.1004477123234143
  0.6848441032976991  0.8424163057497804  0.1004447624473461
  0.8449022374937704  0.6824754033974890  0.1004482279427236
  0.3334514322187898  0.1667262518345131  0.3250837921547081
  0.5001446492662701  0.0001277752318124  0.3250687754607066
  0.3334355023962172  0.6667181960627389  0.3247929355469291
  0.5001445805330040  0.5000160862529460  0.3250687888072842
  0.8334326359643204  0.1667267570931215  0.3250791294210302
  0.0001110149958649  0.0000552530270634  0.3250513252762871
  0.8334324465622686  0.6667066051127911  0.3250791221741313
  0.0000381396731050  0.5000186300704830  0.3250694019098297
 
  0.00000000E+00  0.00000000E+00  0.00000000E+00
  0.00000000E+00  0.00000000E+00  0.00000000E+00
  0.00000000E+00  0.00000000E+00  0.00000000E+00
  0.00000000E+00  0.00000000E+00  0.00000000E+00
  0.00000000E+00  0.00000000E+00  0.00000000E+00
  0.00000000E+00  0.00000000E+00  0.00000000E+00
  0.00000000E+00  0.00000000E+00  0.00000000E+00
  0.00000000E+00  0.00000000E+00  0.00000000E+00
  0.00000000E+00  0.00000000E+00  0.00000000E+00
  0.00000000E+00  0.00000000E+00  0.00000000E+00
  0.00000000E+00  0.00000000E+00  0.00000000E+00
  0.00000000E+00  0.00000000E+00  0.00000000E+00
  0.00000000E+00  0.00000000E+00  0.00000000E+00
  0.00000000E+00  0.00000000E+00  0.00000000E+00
  0.00000000E+00  0.00000000E+00  0.00000000E+00
  0.00000000E+00  0.00000000E+00  0.00000000E+00
