Graphene-BC3 Hollow with lattice paramet
   1.00000000000000     
     4.3474475269978816    2.5099999999999998    0.0000000000000000
    -4.3474475269978816    2.5099999999999998    0.0000000000000000
     0.0000000000000000    0.0000000000000000   15.0000000000000000
   B    C 
     2    14
Direct
  0.3382702998130897  0.6691341055244641  0.1005029937206300
  0.6716061649864435  0.3358024123533959  0.1001828435940229
  0.1647095597795009  0.3220139636146504  0.1002041346679875
  0.3244149577744382  0.1622066502236431  0.1002142803651702
  0.1647087874856497  0.8426939648146069  0.1002040711610861
  0.8451960769833404  0.1622048259067842  0.1001955205463493
  0.6853848895091685  0.8426918683668988  0.1001856445416292
  0.8451961619259999  0.6829893437898713  0.1001954573117843
  0.3334125523684608  0.1667065538857877  0.3253482269023800
  0.5001000721382667  0.0001101188599934  0.3253248206447861
  0.3333947842842080  0.6666976717802269  0.3250457626353152
  0.5001000927613735  0.4999904908765054  0.3253248164024928
  0.8333898622174621  0.1667080317654326  0.3253434868923827
  0.0000646713458669  0.0000326481071316  0.3253257719443723
  0.8333898864207663  0.6666824651590487  0.3253434871517712
  0.9999865135392970  0.4999935516382536  0.3253253481845119
 
  0.00000000E+00  0.00000000E+00  0.00000000E+00
  0.00000000E+00  0.00000000E+00  0.00000000E+00
  0.00000000E+00  0.00000000E+00  0.00000000E+00
  0.00000000E+00  0.00000000E+00  0.00000000E+00
  0.00000000E+00  0.00000000E+00  0.00000000E+00
  0.00000000E+00  0.00000000E+00  0.00000000E+00
  0.00000000E+00  0.00000000E+00  0.00000000E+00
  0.00000000E+00  0.00000000E+00  0.00000000E+00
  0.00000000E+00  0.00000000E+00  0.00000000E+00
  0.00000000E+00  0.00000000E+00  0.00000000E+00
  0.00000000E+00  0.00000000E+00  0.00000000E+00
  0.00000000E+00  0.00000000E+00  0.00000000E+00
  0.00000000E+00  0.00000000E+00  0.00000000E+00
  0.00000000E+00  0.00000000E+00  0.00000000E+00
  0.00000000E+00  0.00000000E+00  0.00000000E+00
  0.00000000E+00  0.00000000E+00  0.00000000E+00
