Graphene-B4C3 Hollow 1 with lattice para
   1.00000000000000     
     4.1898309035091144    2.4190000000000000    0.0000000000000000
    -4.1898309035091144    2.4190000000000000    0.0000000000000000
     0.0000000000000000    0.0000000000000000   15.0000000000000000
   B    C 
     4    11
Direct
  0.0052399275463767  0.0017963811601471  0.1008589208659939
  0.3604161688023115  0.0017718636025844  0.1015182727860996
  0.0053185123864406  0.3569327108685256  0.1016638813497568
  0.6502539460220025  0.6466022239292740  0.1016126525371543
  0.3291079357403298  0.3254673390516645  0.1014459459346032
  0.6816264430505312  0.0017560381265031  0.1014657736929860
  0.0053248570228348  0.6780411337211997  0.1014680072113729
  0.1101230636387515  0.3897705281886255  0.3376899025550656
  0.2767859895099835  0.2230989103763435  0.3378083284663027
  0.1101383622498153  0.8897993873434791  0.3377511374440599
  0.2768081456749094  0.7231295904818559  0.3376490920231395
  0.6100908715867485  0.3897553666752631  0.3376535647812839
  0.7767649670466152  0.2230968270329287  0.3376970174157111
  0.6100955429841218  0.8897563302787893  0.3377885230003277
  0.7767548222937781  0.7231038136072852  0.3377083132694640
 
  0.00000000E+00  0.00000000E+00  0.00000000E+00
  0.00000000E+00  0.00000000E+00  0.00000000E+00
  0.00000000E+00  0.00000000E+00  0.00000000E+00
  0.00000000E+00  0.00000000E+00  0.00000000E+00
  0.00000000E+00  0.00000000E+00  0.00000000E+00
  0.00000000E+00  0.00000000E+00  0.00000000E+00
  0.00000000E+00  0.00000000E+00  0.00000000E+00
  0.00000000E+00  0.00000000E+00  0.00000000E+00
  0.00000000E+00  0.00000000E+00  0.00000000E+00
  0.00000000E+00  0.00000000E+00  0.00000000E+00
  0.00000000E+00  0.00000000E+00  0.00000000E+00
  0.00000000E+00  0.00000000E+00  0.00000000E+00
  0.00000000E+00  0.00000000E+00  0.00000000E+00
  0.00000000E+00  0.00000000E+00  0.00000000E+00
  0.00000000E+00  0.00000000E+00  0.00000000E+00
