Graphene-B4C3 Hollow 1 with lattice para
   1.00000000000000     
     4.1898309035091144    2.4190000000000000    0.0000000000000000
    -4.1898309035091144    2.4190000000000000    0.0000000000000000
     0.0000000000000000    0.0000000000000000   15.0000000000000000
   B    C 
     4    11
Direct
  0.0052190364038525  0.0018068778551132  0.1009009254345921
  0.3604503529455526  0.0017924346171535  0.1015147140635960
  0.0053090954930481  0.3569672946619579  0.1016635906787044
  0.6502077424383097  0.6465860252355550  0.1016107256776605
  0.3290761078304317  0.3254778644932103  0.1014521196173538
  0.6816072535938117  0.0017608717046859  0.1014441479966456
  0.0052976741165245  0.6780833706683690  0.1014728213503022
  0.1101541111392708  0.3897680690405922  0.3376823791634471
  0.2768074889690957  0.2230783880791501  0.3378078494945098
  0.1101571094745729  0.8897911890045412  0.3377448696348176
  0.2768263408464239  0.7231220484833354  0.3376528420377150
  0.6100963338910034  0.3897479086251419  0.3376496760661155
  0.7767711904510846  0.2230813832152276  0.3376960832494946
  0.6100983103748960  0.8897304880680693  0.3377771641759092
  0.7767714075876723  0.7230842306923662  0.3377094246924581
 
  0.00000000E+00  0.00000000E+00  0.00000000E+00
  0.00000000E+00  0.00000000E+00  0.00000000E+00
  0.00000000E+00  0.00000000E+00  0.00000000E+00
  0.00000000E+00  0.00000000E+00  0.00000000E+00
  0.00000000E+00  0.00000000E+00  0.00000000E+00
  0.00000000E+00  0.00000000E+00  0.00000000E+00
  0.00000000E+00  0.00000000E+00  0.00000000E+00
  0.00000000E+00  0.00000000E+00  0.00000000E+00
  0.00000000E+00  0.00000000E+00  0.00000000E+00
  0.00000000E+00  0.00000000E+00  0.00000000E+00
  0.00000000E+00  0.00000000E+00  0.00000000E+00
  0.00000000E+00  0.00000000E+00  0.00000000E+00
  0.00000000E+00  0.00000000E+00  0.00000000E+00
  0.00000000E+00  0.00000000E+00  0.00000000E+00
  0.00000000E+00  0.00000000E+00  0.00000000E+00
