k-points 13
0
Gamma
13    13    1
0    0    0