Graphene-BC3 Hollow with lattice paramet
   1.00000000000000     
     4.3665000858811389    2.5209999999999995    0.0000000000000000
    -4.3665000858811389    2.5209999999999995    0.0000000000000000
     0.0000000000000000    0.0000000000000000   15.0000000000000000
   B    C 
     2    14
Direct
  0.3382456368974390  0.6691217286701262  0.1004846961469665
  0.6715822514928739  0.3357897849459049  0.1001671128903971
  0.1645491180865929  0.3217259794351651  0.1001766729446875
  0.3241073993889550  0.1620527387509181  0.1001848557408494
  0.1645483912720082  0.8428203451865525  0.1001767711186831
  0.8453121689953558  0.1620511310113592  0.1001749798243179
  0.6856374105005778  0.8428173947362834  0.1001669696376749
  0.8453128144352217  0.6832594800752511  0.1001751116665150
  0.3334363601187470  0.1667188201780912  0.3253709028955407
  0.5001260490259717  0.0001264851415239  0.3253471453712138
  0.3334185264481409  0.6667099012502518  0.3250645514926317
  0.5001260379124549  0.5000007439338704  0.3253471500015957
  0.8334138503150709  0.1667202297143646  0.3253662549015223
  0.0000888694015842  0.0000450375492997  0.3253495150009623
  0.8334138715434551  0.6666949734805335  0.3253662600293359
  0.0000065774988838  0.5000038926071994  0.3253477170037790
 
  0.00000000E+00  0.00000000E+00  0.00000000E+00
  0.00000000E+00  0.00000000E+00  0.00000000E+00
  0.00000000E+00  0.00000000E+00  0.00000000E+00
  0.00000000E+00  0.00000000E+00  0.00000000E+00
  0.00000000E+00  0.00000000E+00  0.00000000E+00
  0.00000000E+00  0.00000000E+00  0.00000000E+00
  0.00000000E+00  0.00000000E+00  0.00000000E+00
  0.00000000E+00  0.00000000E+00  0.00000000E+00
  0.00000000E+00  0.00000000E+00  0.00000000E+00
  0.00000000E+00  0.00000000E+00  0.00000000E+00
  0.00000000E+00  0.00000000E+00  0.00000000E+00
  0.00000000E+00  0.00000000E+00  0.00000000E+00
  0.00000000E+00  0.00000000E+00  0.00000000E+00
  0.00000000E+00  0.00000000E+00  0.00000000E+00
  0.00000000E+00  0.00000000E+00  0.00000000E+00
  0.00000000E+00  0.00000000E+00  0.00000000E+00
