BC3 with lattice parameter 5.169        
   1.00000000000000     
     4.4764850000000003    2.5844999999999998    0.0000000000000000
    -4.4764850000000003    2.5844999999999998    0.0000000000000000
     0.0000000000000000    0.0000000000000000   15.0000000000000000
   B    C 
     2     6
Direct
  0.3383342179224500  0.6691650875106344  0.2500000000000000
  0.6716663043940343  0.3358318872984278  0.2500000000000000
  0.1637461401105283  0.3199998790484960  0.2500000000000000
  0.3224998839082049  0.1612503053693298  0.2500000000000000
  0.1637542811655575  0.8437488603542979  0.2500000000000000
  0.8462441818982721  0.1612508994547273  0.2500000000000000
  0.6874996157281582  0.8437500784817334  0.2500000000000000
  0.8462513748727968  0.6849990024823522  0.2500000000000000
 
  0.00000000E+00  0.00000000E+00  0.00000000E+00
  0.00000000E+00  0.00000000E+00  0.00000000E+00
  0.00000000E+00  0.00000000E+00  0.00000000E+00
  0.00000000E+00  0.00000000E+00  0.00000000E+00
  0.00000000E+00  0.00000000E+00  0.00000000E+00
  0.00000000E+00  0.00000000E+00  0.00000000E+00
  0.00000000E+00  0.00000000E+00  0.00000000E+00
  0.00000000E+00  0.00000000E+00  0.00000000E+00
