Graphene-Borophene Top with lattice para
   1.00000000000000     
     4.3119404854427197    2.4895000000000000    0.0000000000000000
    -4.3119404854427197    2.4895000000000000    0.0000000000000000
     0.0000000000000000    0.0000000000000000   15.0000000000000000
   B    C 
     8     8
Direct
  0.6685294863562933  0.0000317435822470  0.1014908743568649
  0.3315012572259560  0.0000317435822470  0.1014908743568649
 -0.0000317435822470  0.3314695136437092  0.1014908743568649
 -0.0000317435822470  0.6684977427740463  0.1014908743568649
  0.3315012572259560  0.3314695136437092  0.1014908743568649
  0.6685294863562933  0.6684977427740463  0.1014908743568649
  0.6666659999999993  0.3333330000000032  0.0884552167655001
  0.3333330000000032  0.6666659999999993  0.1144240571333262
  0.1666535758978924  0.3333081517957893  0.3345686379028958
  0.3333305180394849  0.1666647590197401  0.3344662388815802
  0.1666535758978924  0.8333454241021098  0.3345686379028958
  0.3333330000000032  0.6666659999999993  0.3346260210588532
  0.6666659999999993  0.3333330000000032  0.3344448285477030
  0.8333342409802627  0.1666647590197401  0.3344662388815802
  0.6666908482042131  0.8333454241021098  0.3345686379028958
  0.8333342409802627  0.6666684819605183  0.3344662388815802
 
  0.00000000E+00  0.00000000E+00  0.00000000E+00
  0.00000000E+00  0.00000000E+00  0.00000000E+00
  0.00000000E+00  0.00000000E+00  0.00000000E+00
  0.00000000E+00  0.00000000E+00  0.00000000E+00
  0.00000000E+00  0.00000000E+00  0.00000000E+00
  0.00000000E+00  0.00000000E+00  0.00000000E+00
  0.00000000E+00  0.00000000E+00  0.00000000E+00
  0.00000000E+00  0.00000000E+00  0.00000000E+00
  0.00000000E+00  0.00000000E+00  0.00000000E+00
  0.00000000E+00  0.00000000E+00  0.00000000E+00
  0.00000000E+00  0.00000000E+00  0.00000000E+00
  0.00000000E+00  0.00000000E+00  0.00000000E+00
  0.00000000E+00  0.00000000E+00  0.00000000E+00
  0.00000000E+00  0.00000000E+00  0.00000000E+00
  0.00000000E+00  0.00000000E+00  0.00000000E+00
  0.00000000E+00  0.00000000E+00  0.00000000E+00
