Graphene-BC3 Hollow with lattice paramet
   1.00000000000000     
     4.3682321366887082    2.5219999999999998    0.0000000000000000
    -4.3682321366887082    2.5219999999999998    0.0000000000000000
     0.0000000000000000    0.0000000000000000   15.0000000000000000
   C
     8
Direct
  0.3334811173097521  0.1667431367592656  0.3381403848010152
  0.5001692877925876  0.0001509535779292  0.3381174106109555
  0.3334617459026248  0.6667334489019368  0.3378319248477837
  0.5001692848023822  0.5000237365039837  0.3381174094127672
  0.8334564745697506  0.1667444710285650  0.3381357855044982
  0.0001317547184811  0.0000685770052513  0.3381205112583743
  0.8334564922913117  0.6667172008886766  0.3381358174259219
  0.0000478974999254  0.5000266465460186  0.3381180006530542
