Graphene-B4C3 Hollow 2 with lattice para
   1.00000000000000     
     4.2158116656226472    2.4340000000000002    0.0000000000000000
    -4.2158116656226472    2.4340000000000002    0.0000000000000000
     0.0000000000000000    0.0000000000000000   15.0000000000000000
   B    C 
     4    11
Direct
  0.0044057636954044  0.0029276370682806  0.0996403612290855
  0.3595438640952623  0.0029331248272585  0.1007387230221217
  0.0044143682965105  0.3580654233323941  0.1007411851408795
  0.6492776737778830  0.6477962091057448  0.1007489393728387
  0.3278838239636401  0.3264009644690170  0.1005528807238975
  0.6809471270499077  0.0029368816764666  0.1005515894857773
  0.0044186386080090  0.6794666040235686  0.1005517252739156
  0.1664435821347624  0.3331955732525907  0.3384906641138561
  0.3331329315437377  0.1665068387665644  0.3384923230169082
  0.1664876330387347  0.8332189331241296  0.3384944923295306
  0.3331342752333513  0.6665309565906676  0.3383850587053089
  0.6664671597266233  0.3331962778964943  0.3383851429413695
  0.8331555226769873  0.1665502759688159  0.3384937517551207
  0.6664679613882853  0.8331769413875142  0.3384901589600156
  0.8331136747709070  0.6665313585105049  0.3384890039294017
 
  0.00000000E+00  0.00000000E+00  0.00000000E+00
  0.00000000E+00  0.00000000E+00  0.00000000E+00
  0.00000000E+00  0.00000000E+00  0.00000000E+00
  0.00000000E+00  0.00000000E+00  0.00000000E+00
  0.00000000E+00  0.00000000E+00  0.00000000E+00
  0.00000000E+00  0.00000000E+00  0.00000000E+00
  0.00000000E+00  0.00000000E+00  0.00000000E+00
  0.00000000E+00  0.00000000E+00  0.00000000E+00
  0.00000000E+00  0.00000000E+00  0.00000000E+00
  0.00000000E+00  0.00000000E+00  0.00000000E+00
  0.00000000E+00  0.00000000E+00  0.00000000E+00
  0.00000000E+00  0.00000000E+00  0.00000000E+00
  0.00000000E+00  0.00000000E+00  0.00000000E+00
  0.00000000E+00  0.00000000E+00  0.00000000E+00
  0.00000000E+00  0.00000000E+00  0.00000000E+00
