Graphene-B4C3 Hollow 1 with lattice para
   1.00000000000000     
     4.2071514115848023    2.4289999999999998    0.0000000000000000
    -4.2071514115848023    2.4289999999999998    0.0000000000000000
     0.0000000000000000    0.0000000000000000   15.0000000000000000
   B    C 
     4    11
Direct
  0.0369685360019168 -0.0265013409813048  0.1022747904441465
  0.3919490755391733 -0.0263940721969255  0.0987112103589413
  0.0369662022766961  0.3284117615135676  0.0988630813569114
  0.6821078393429189  0.6183220009912925  0.0988224896705899
  0.3605542347222250  0.2968383817702607  0.0990935902500896
  0.7135205714682867 -0.0265131571761785  0.0991900902792343
  0.0366503224444889  0.6497532881288739  0.0991330788302892
  0.0824412232991455  0.4145739724574776  0.3394138615580856
  0.2491011372946701  0.2479843558338167  0.3395376628880708
  0.0824669650101938  0.9145596633333747  0.3394323165877259
  0.2491567178102256  0.7479194995923938  0.3394945989636274
  0.5824497001774271  0.4145539963836376  0.3394515348970533
  0.7490869249560570  0.2478901695557410  0.3394115661057474
  0.5824069306859810  0.9145794749715978  0.3394671639326589
  0.7490231745261448  0.7479004502668432  0.3394822972101497
 
  0.00000000E+00  0.00000000E+00  0.00000000E+00
  0.00000000E+00  0.00000000E+00  0.00000000E+00
  0.00000000E+00  0.00000000E+00  0.00000000E+00
  0.00000000E+00  0.00000000E+00  0.00000000E+00
  0.00000000E+00  0.00000000E+00  0.00000000E+00
  0.00000000E+00  0.00000000E+00  0.00000000E+00
  0.00000000E+00  0.00000000E+00  0.00000000E+00
  0.00000000E+00  0.00000000E+00  0.00000000E+00
  0.00000000E+00  0.00000000E+00  0.00000000E+00
  0.00000000E+00  0.00000000E+00  0.00000000E+00
  0.00000000E+00  0.00000000E+00  0.00000000E+00
  0.00000000E+00  0.00000000E+00  0.00000000E+00
  0.00000000E+00  0.00000000E+00  0.00000000E+00
  0.00000000E+00  0.00000000E+00  0.00000000E+00
  0.00000000E+00  0.00000000E+00  0.00000000E+00
