Graphene-B4C3 Top with lattice parameter
   1.00000000000000     
     4.2010892337583119    2.4255000000000000    0.0000000000000000
    -4.2010892337583119    2.4255000000000000    0.0000000000000000
     0.0000000000000000    0.0000000000000000   15.0000000000000000
   B    C 
     4    11
Direct
  0.0040980794471436  0.0027178677694114  0.1012133135673387
  0.3592880846557577  0.0030456742831256  0.1008044874494837
  0.0037779777822980  0.3575832227365566  0.1008048122907575
  0.6492246420654239  0.6475402560933696  0.1008022760382690
  0.3277998989763449  0.3261202824500536  0.1007936090320481
  0.6807000899924712  0.0030368398091208  0.1007894975962710
  0.0037986828628066  0.6790123779109382  0.1007858289221113
  0.0000928418863118  0.5000353225810280  0.3346930545178673
  0.1667304838870115  0.3334074908127569  0.3347357275512223
  0.0000777898016165  0.0000468384632619  0.3346454006992727
  0.1667779152636757  0.8333904800581231  0.3347397234144287
  0.5000915224370482  0.5000766503959070  0.3346964687385600
  0.6667407697214687  0.3333809837087585  0.3345818978519818
  0.5000485896557259  0.0000313487509263  0.3346910717919149
  0.6667132982315893  0.8333416975099883  0.3347354972051547
 
  0.00000000E+00  0.00000000E+00  0.00000000E+00
  0.00000000E+00  0.00000000E+00  0.00000000E+00
  0.00000000E+00  0.00000000E+00  0.00000000E+00
  0.00000000E+00  0.00000000E+00  0.00000000E+00
  0.00000000E+00  0.00000000E+00  0.00000000E+00
  0.00000000E+00  0.00000000E+00  0.00000000E+00
  0.00000000E+00  0.00000000E+00  0.00000000E+00
  0.00000000E+00  0.00000000E+00  0.00000000E+00
  0.00000000E+00  0.00000000E+00  0.00000000E+00
  0.00000000E+00  0.00000000E+00  0.00000000E+00
  0.00000000E+00  0.00000000E+00  0.00000000E+00
  0.00000000E+00  0.00000000E+00  0.00000000E+00
  0.00000000E+00  0.00000000E+00  0.00000000E+00
  0.00000000E+00  0.00000000E+00  0.00000000E+00
  0.00000000E+00  0.00000000E+00  0.00000000E+00
