Graphene-B4C3 Hollow 2 with lattice para
   1.00000000000000     
     4.2010892337583119    2.4255000000000000    0.0000000000000000
    -4.2010892337583119    2.4255000000000000    0.0000000000000000
     0.0000000000000000    0.0000000000000000   15.0000000000000000
   B    C 
     4    11
Direct
  0.0044150735838453  0.0029368545046584  0.0997015357487333
  0.3595602585548617  0.0029391798238089  0.1009754150783068
  0.0044220396370902  0.3580791097695433  0.1009778016014654
  0.6492723224587837  0.6477889315114805  0.1009863499935839
  0.3280446373627846  0.3265607542935825  0.1007655695750668
  0.6807961384546207  0.0029405905620497  0.1007656156728551
  0.0044225009552492  0.6793101273413962  0.1007661057569771
  0.1664390787607561  0.3331917952545200  0.3383145253753072
  0.3331273318059802  0.1665047859334664  0.3383162952061462
  0.1664797943470051  0.8332121476145548  0.3383182415873594
  0.3331303679837069  0.6665286429699243  0.3382075180781645
  0.6664643089426221  0.3331935878959795  0.3382076115221684
  0.8331471849959914  0.1665437340469459  0.3383175278006256
  0.6664640176079979  0.8331751346976796  0.3383134851432485
  0.8331089445487121  0.6665286237804220  0.3383124018600189
 
  0.00000000E+00  0.00000000E+00  0.00000000E+00
  0.00000000E+00  0.00000000E+00  0.00000000E+00
  0.00000000E+00  0.00000000E+00  0.00000000E+00
  0.00000000E+00  0.00000000E+00  0.00000000E+00
  0.00000000E+00  0.00000000E+00  0.00000000E+00
  0.00000000E+00  0.00000000E+00  0.00000000E+00
  0.00000000E+00  0.00000000E+00  0.00000000E+00
  0.00000000E+00  0.00000000E+00  0.00000000E+00
  0.00000000E+00  0.00000000E+00  0.00000000E+00
  0.00000000E+00  0.00000000E+00  0.00000000E+00
  0.00000000E+00  0.00000000E+00  0.00000000E+00
  0.00000000E+00  0.00000000E+00  0.00000000E+00
  0.00000000E+00  0.00000000E+00  0.00000000E+00
  0.00000000E+00  0.00000000E+00  0.00000000E+00
  0.00000000E+00  0.00000000E+00  0.00000000E+00
