Graphene-Borophene Bridge with lattice p
   1.00000000000000     
     4.3384408627985236    2.5047999999999999    0.0000000000000000
    -4.3384408627985236    2.5047999999999999    0.0000000000000000
     0.0000000000000000    0.0000000000000000   15.0000000000000000
   B    C 
     8     8
Direct
  0.6697372304622702 -0.0000571256163605  0.1640778251949646
  0.3305952828225566  0.0000413197884270  0.1642744706578165
  0.0000571256163605  0.3302617695377325  0.1640778251949646
 -0.0000413197884270  0.6694037171774458  0.1642744706578165
  0.3306469936673082  0.3305661101794602  0.1643039594354100
  0.6694328898205421  0.6693520063326945  0.1643039594354100
  0.6666308950724440  0.3333681049275584  0.1781671714439592
  0.3332761619609306  0.6667228380390718  0.1649838352465978
  0.2530644298565932  0.2532693400200688  0.4034609023166189
  0.4187722455874661  0.0823212073516929  0.4025444321388464
  0.2503947992690382  0.7496042007309645  0.4019333214012672
  0.4158964259179121  0.5841025740820904  0.4029269324966491
  0.7480410984078163  0.2519579015921862  0.4031713361818536
  0.9157479553656490  0.0842510446343536  0.4040275570757324
  0.7467296599799336  0.7469345701434092  0.4034609023166189
  0.9176777926483098  0.5812267544125365  0.4025444321388464
 
  0.00000000E+00  0.00000000E+00  0.00000000E+00
  0.00000000E+00  0.00000000E+00  0.00000000E+00
  0.00000000E+00  0.00000000E+00  0.00000000E+00
  0.00000000E+00  0.00000000E+00  0.00000000E+00
  0.00000000E+00  0.00000000E+00  0.00000000E+00
  0.00000000E+00  0.00000000E+00  0.00000000E+00
  0.00000000E+00  0.00000000E+00  0.00000000E+00
  0.00000000E+00  0.00000000E+00  0.00000000E+00
  0.00000000E+00  0.00000000E+00  0.00000000E+00
  0.00000000E+00  0.00000000E+00  0.00000000E+00
  0.00000000E+00  0.00000000E+00  0.00000000E+00
  0.00000000E+00  0.00000000E+00  0.00000000E+00
  0.00000000E+00  0.00000000E+00  0.00000000E+00
  0.00000000E+00  0.00000000E+00  0.00000000E+00
  0.00000000E+00  0.00000000E+00  0.00000000E+00
  0.00000000E+00  0.00000000E+00  0.00000000E+00
