Graphene-B4C3 Hollow 2 with lattice para
   1.00000000000000     
     4.1846347510864073    2.4159999999999999    0.0000000000000000
    -4.1846347510864073    2.4159999999999999    0.0000000000000000
     0.0000000000000000    0.0000000000000000   15.0000000000000000
   B    C 
     4    11
Direct
  0.0043865753785543  0.0029111905783357  0.0994133807287683
  0.3595349003192274  0.0029202761867557  0.1012913651713095
  0.0043976139022632  0.3580626033749467  0.1012935640879917
  0.6492480481606441  0.6477710199157745  0.1012977225489052
  0.3281949660483481  0.3267188028489731  0.1010080559798621
  0.6805986811587610  0.0029182587113626  0.1010052450727936
  0.0043936489997442  0.6791230567709078  0.1010051911028516
  0.1664645917919004  0.3332089728549278  0.3381430154612967
  0.3331504878624524  0.1665232849833760  0.3381448140658943
  0.1665022221729685  0.8332277082341030  0.3381471589604910
  0.3331512859001780  0.6665440461118773  0.3380327474397996
  0.6664849543983757  0.3332090034840532  0.3380327497925164
  0.8331684346219136  0.1665602219481698  0.3381465446225880
  0.6664845212257818  0.8331922325473740  0.3381428111898713
  0.8331330680588933  0.6665433214490736  0.3381416337750878
 
  0.00000000E+00  0.00000000E+00  0.00000000E+00
  0.00000000E+00  0.00000000E+00  0.00000000E+00
  0.00000000E+00  0.00000000E+00  0.00000000E+00
  0.00000000E+00  0.00000000E+00  0.00000000E+00
  0.00000000E+00  0.00000000E+00  0.00000000E+00
  0.00000000E+00  0.00000000E+00  0.00000000E+00
  0.00000000E+00  0.00000000E+00  0.00000000E+00
  0.00000000E+00  0.00000000E+00  0.00000000E+00
  0.00000000E+00  0.00000000E+00  0.00000000E+00
  0.00000000E+00  0.00000000E+00  0.00000000E+00
  0.00000000E+00  0.00000000E+00  0.00000000E+00
  0.00000000E+00  0.00000000E+00  0.00000000E+00
  0.00000000E+00  0.00000000E+00  0.00000000E+00
  0.00000000E+00  0.00000000E+00  0.00000000E+00
  0.00000000E+00  0.00000000E+00  0.00000000E+00
