Graphene-Borophene Top with lattice para
   1.00000000000000     
     4.3119404854427197    2.4895000000000000    0.0000000000000000
    -4.3119404854427197    2.4895000000000000    0.0000000000000000
     0.0000000000000000    0.0000000000000000   15.0000000000000000
   B
     8
Direct
  0.6685294863562916  0.0000317435822481  0.1014908743568625
  0.3315012572259590  0.0000317435822481  0.1014908743568625
  0.9999682564177519  0.3314695136437109  0.1014908743568625
  0.9999682564177519  0.6684977427740435  0.1014908743568625
  0.3315012572259590  0.3314695136437109  0.1014908743568625
  0.6685294863562916  0.6684977427740435  0.1014908743568625
  0.6666659999999993  0.3333330000000032  0.0884552167655031
  0.3333330000000032  0.6666659999999993  0.1144240571333270
