BC3 with lattice parameter 5.169        
   1.00000000000000     
     4.4764850000000003    2.5844999999999998    0.0000000000000000
    -4.4764850000000003    2.5844999999999998    0.0000000000000000
     0.0000000000000000    0.0000000000000000   15.0000000000000000
   B    C 
     2     6
Direct
  0.3383342132424611  0.6691650861225928  0.2500000000000000
  0.6716663098906253  0.3358318879195785  0.2500000000000000
  0.1637461190748508  0.3199999021540289  0.2500000000000000
  0.3224999078259037  0.1612503499698807  0.2500000000000000
  0.1637543291095180  0.8437488891966695  0.2500000000000000
  0.8462441350111310  0.1612508716093549  0.2500000000000000
  0.6874995921577748  0.8437500341407974  0.2500000000000000
  0.8462513936877376  0.6849989788870962  0.2500000000000000
 
  0.00000000E+00  0.00000000E+00  0.00000000E+00
  0.00000000E+00  0.00000000E+00  0.00000000E+00
  0.00000000E+00  0.00000000E+00  0.00000000E+00
  0.00000000E+00  0.00000000E+00  0.00000000E+00
  0.00000000E+00  0.00000000E+00  0.00000000E+00
  0.00000000E+00  0.00000000E+00  0.00000000E+00
  0.00000000E+00  0.00000000E+00  0.00000000E+00
  0.00000000E+00  0.00000000E+00  0.00000000E+00
