Graphene-BC3 Hollow with lattice paramet
   1.00000000000000     
     4.3682321366887082    2.5219999999999998    0.0000000000000000
    -4.3682321366887082    2.5219999999999998    0.0000000000000000
     0.0000000000000000    0.0000000000000000   15.0000000000000000
   B    C 
     2    14
Direct
  0.3381630038819260  0.6690791655810689  0.1133015263901677
  0.6714981714045984  0.3357473169016531  0.1129848268496057
  0.1644531802090073  0.3216615937534150  0.1130045044616231
  0.3240040851093587  0.1619995382697053  0.1130117493780442
  0.1644537076806413  0.8427882827388791  0.1130045987437456
  0.8452399444364503  0.1619977562255911  0.1130022037064698
  0.6855753545648176  0.8427857469775917  0.1129959502854907
  0.8452407417054375  0.6832375374613904  0.1130022897051214
  0.3335216150388339  0.1667624894414858  0.3382107509183333
  0.5002086852208320  0.0001687618666811  0.3381919181274034
  0.3335027152557205  0.6667530346479020  0.3379076598909906
  0.5002087151574650  0.5000431070988504  0.3381919115101638
  0.8334974743877482  0.1667639197022712  0.3382063605689032
  0.0001715273700304  0.0000873824371639  0.3381847629915184
  0.8334975026340642  0.6667369730191758  0.3382063648897621
  0.0000889092764031  0.5000460605438699  0.3381926215826577
 
  0.00000000E+00  0.00000000E+00  0.00000000E+00
  0.00000000E+00  0.00000000E+00  0.00000000E+00
  0.00000000E+00  0.00000000E+00  0.00000000E+00
  0.00000000E+00  0.00000000E+00  0.00000000E+00
  0.00000000E+00  0.00000000E+00  0.00000000E+00
  0.00000000E+00  0.00000000E+00  0.00000000E+00
  0.00000000E+00  0.00000000E+00  0.00000000E+00
  0.00000000E+00  0.00000000E+00  0.00000000E+00
  0.00000000E+00  0.00000000E+00  0.00000000E+00
  0.00000000E+00  0.00000000E+00  0.00000000E+00
  0.00000000E+00  0.00000000E+00  0.00000000E+00
  0.00000000E+00  0.00000000E+00  0.00000000E+00
  0.00000000E+00  0.00000000E+00  0.00000000E+00
  0.00000000E+00  0.00000000E+00  0.00000000E+00
  0.00000000E+00  0.00000000E+00  0.00000000E+00
  0.00000000E+00  0.00000000E+00  0.00000000E+00
