Graphene-Borophene Hollow 1 with lattice
   1.00000000000000     
     4.3128065108465039    2.4899999999999998    0.0000000000000000
    -4.3128065108465039    2.4899999999999998    0.0000000000000000
     0.0000000000000000    0.0000000000000000   15.0000000000000000
   B    C 
     8     8
Direct
  0.6698286610042760 -0.0001150697877761  0.1628343515760438
  0.3303276538771747 -0.0000103988429289  0.1629573582079910
  0.0001150697877761  0.3301703389957266  0.1628343515760438
  0.0000103988429289  0.6696713461228277  0.1629573582079910
  0.3304126131933677  0.3304401155822065  0.1630201244464178
  0.6695588844177961  0.6695863868066347  0.1630201244464178
  0.6666497298507497  0.3333492701492529  0.1606290243196203
  0.3332902730591253  0.6667087269408775  0.1769980305965472
  0.2812355288489458  0.2252237641608948  0.4057201570032568
  0.4458322702343253  0.0540461608671400  0.4046649433222517
  0.2778234047395355  0.7221755952604669  0.4038906518023404
  0.4436941918794147  0.5563048081205877  0.4050274459703916
  0.7754295185028021  0.2245694814972005  0.4054200148494438
  0.9439456156787439  0.0560533843212586  0.4064409633497439
  0.7747752358391078  0.7187634711510565  0.4057201570032568
  0.9459528391328625  0.5541667297656772  0.4046649433222517
 
  0.00000000E+00  0.00000000E+00  0.00000000E+00
  0.00000000E+00  0.00000000E+00  0.00000000E+00
  0.00000000E+00  0.00000000E+00  0.00000000E+00
  0.00000000E+00  0.00000000E+00  0.00000000E+00
  0.00000000E+00  0.00000000E+00  0.00000000E+00
  0.00000000E+00  0.00000000E+00  0.00000000E+00
  0.00000000E+00  0.00000000E+00  0.00000000E+00
  0.00000000E+00  0.00000000E+00  0.00000000E+00
  0.00000000E+00  0.00000000E+00  0.00000000E+00
  0.00000000E+00  0.00000000E+00  0.00000000E+00
  0.00000000E+00  0.00000000E+00  0.00000000E+00
  0.00000000E+00  0.00000000E+00  0.00000000E+00
  0.00000000E+00  0.00000000E+00  0.00000000E+00
  0.00000000E+00  0.00000000E+00  0.00000000E+00
  0.00000000E+00  0.00000000E+00  0.00000000E+00
  0.00000000E+00  0.00000000E+00  0.00000000E+00
