Graphene-Borophene Hollow 1 with lattice
   1.00000000000000     
     4.3128065108465039    2.4899999999999998    0.0000000000000000
    -4.3128065108465039    2.4899999999999998    0.0000000000000000
     0.0000000000000000    0.0000000000000000   15.0000000000000000
   B    C 
     8     8
Direct
  0.6697805837367777 -0.0000094060924265  0.1100089793296761
  0.3302628694242903  0.0000133628704883  0.1100288385486775
  0.0000094060924265  0.3302184162632248  0.1100089793296761
 -0.0000133628704883  0.6697361305757121  0.1100288385486775
  0.3302802458031082  0.3302756270199504  0.1100390710308833
  0.6697233729800522  0.6697187541968943  0.1100390710308833
  0.6666588014459918  0.3333401985540108  0.1090167236865959
  0.3333263459993570  0.6666726540006457  0.1129356502647602
  0.2790460828011853  0.2236597448289497  0.4594275066902787
  0.4452285363674168  0.0547364096729110  0.4592454459249717
  0.2776061001127529  0.7223928998872495  0.4591109272384707
  0.4443294596176559  0.5556695403823464  0.4593088521630969
  0.7766152384804038  0.2233837615195987  0.4593755365350835
  0.9444263633998574  0.0555726366001451  0.4595526270630277
  0.7763392551710528  0.7209529171988169  0.4594275066902787
  0.9452625903270915  0.5547704636325856  0.4592454459249717
 
  0.00000000E+00  0.00000000E+00  0.00000000E+00
  0.00000000E+00  0.00000000E+00  0.00000000E+00
  0.00000000E+00  0.00000000E+00  0.00000000E+00
  0.00000000E+00  0.00000000E+00  0.00000000E+00
  0.00000000E+00  0.00000000E+00  0.00000000E+00
  0.00000000E+00  0.00000000E+00  0.00000000E+00
  0.00000000E+00  0.00000000E+00  0.00000000E+00
  0.00000000E+00  0.00000000E+00  0.00000000E+00
  0.00000000E+00  0.00000000E+00  0.00000000E+00
  0.00000000E+00  0.00000000E+00  0.00000000E+00
  0.00000000E+00  0.00000000E+00  0.00000000E+00
  0.00000000E+00  0.00000000E+00  0.00000000E+00
  0.00000000E+00  0.00000000E+00  0.00000000E+00
  0.00000000E+00  0.00000000E+00  0.00000000E+00
  0.00000000E+00  0.00000000E+00  0.00000000E+00
  0.00000000E+00  0.00000000E+00  0.00000000E+00
