Graphene-BC3 Top with lattice parameter 
   1.00000000000000     
     4.3699641874962758    2.5229999999999992    0.0000000000000000
    -4.3699641874962758    2.5229999999999992    0.0000000000000000
     0.0000000000000000    0.0000000000000000   15.0000000000000000
   B    C 
     2    14
Direct
  0.3383345919802871  0.6691672850151491  0.1002337134615974
  0.6716676252325353  0.3358336504629451  0.1002336993111331
  0.1646127399960081  0.3217193695932419  0.0999093163740490
  0.3242227926647264  0.1621115347068702  0.0999083631244849
  0.1646138707335182  0.8428939696520529  0.0999093115274029
  0.8453967097583910  0.1621089227050573  0.0999107960911580
  0.6857907584440766  0.8428944169315477  0.0999113672285795
  0.8453980497165838  0.6832870485866104  0.0999107917099216
  0.1665645013683504  0.3331362224084340  0.3288844090996630
  0.3331336067801873  0.1665666009528895  0.3288855258637485
  0.1665645026591868  0.8334278731311715  0.3288844087314694
  0.3333265371365489  0.6666630681443382  0.3285867873031891
  0.6666599184517841  0.3333297560434821  0.3285867868584688
  0.8334253335553820  0.1665671815530443  0.3288820046314392
  0.6668551327667142  0.8334273634420647  0.3288807144534640
  0.8334253287557390  0.6668577366711104  0.3288820042302520
 
  0.00000000E+00  0.00000000E+00  0.00000000E+00
  0.00000000E+00  0.00000000E+00  0.00000000E+00
  0.00000000E+00  0.00000000E+00  0.00000000E+00
  0.00000000E+00  0.00000000E+00  0.00000000E+00
  0.00000000E+00  0.00000000E+00  0.00000000E+00
  0.00000000E+00  0.00000000E+00  0.00000000E+00
  0.00000000E+00  0.00000000E+00  0.00000000E+00
  0.00000000E+00  0.00000000E+00  0.00000000E+00
  0.00000000E+00  0.00000000E+00  0.00000000E+00
  0.00000000E+00  0.00000000E+00  0.00000000E+00
  0.00000000E+00  0.00000000E+00  0.00000000E+00
  0.00000000E+00  0.00000000E+00  0.00000000E+00
  0.00000000E+00  0.00000000E+00  0.00000000E+00
  0.00000000E+00  0.00000000E+00  0.00000000E+00
  0.00000000E+00  0.00000000E+00  0.00000000E+00
  0.00000000E+00  0.00000000E+00  0.00000000E+00
