Graphene-Borophene Hollow 1 with lattice
   1.00000000000000     
     4.3058783076162293    2.4860000000000002    0.0000000000000000
    -4.3058783076162293    2.4860000000000002    0.0000000000000000
     0.0000000000000000    0.0000000000000000   15.0000000000000000
   B    C 
     8     8
Direct
  0.6811931944169780 -0.0116378405751993  0.1670228502373680
  0.3434821948277925 -0.0123859815192082  0.1673557451530760
  0.0116378405751993  0.3188058055830241  0.1670228502373680
  0.0123859815192082  0.6565168051722101  0.1673557451530760
  0.3431810354178961  0.3190232350303910  0.1675160353106892
  0.6809757649696118  0.6568179645821071  0.1675160353106892
  0.6786788814133410  0.3213201185866619  0.1542420999358605
  0.3449815802753302  0.6550174197246720  0.1786061003419369
  0.2654495052989736  0.2342016737893157  0.4025204084460634
  0.4326249203998171  0.0675537886288287  0.4025293149924570
  0.2656123744273858  0.7343866255726162  0.4027636388991097
  0.4324092767184577  0.5675897232815448  0.4027069932638779
  0.7657388684210082  0.2342601315789942  0.4024026027805843
  0.9322879326260719  0.0677110673739313  0.4021898564993334
  0.7657973262106865  0.7345494947010287  0.4025204084460634
  0.9324452113711739  0.5673740796001856  0.4025293149924570
 
  0.00000000E+00  0.00000000E+00  0.00000000E+00
  0.00000000E+00  0.00000000E+00  0.00000000E+00
  0.00000000E+00  0.00000000E+00  0.00000000E+00
  0.00000000E+00  0.00000000E+00  0.00000000E+00
  0.00000000E+00  0.00000000E+00  0.00000000E+00
  0.00000000E+00  0.00000000E+00  0.00000000E+00
  0.00000000E+00  0.00000000E+00  0.00000000E+00
  0.00000000E+00  0.00000000E+00  0.00000000E+00
  0.00000000E+00  0.00000000E+00  0.00000000E+00
  0.00000000E+00  0.00000000E+00  0.00000000E+00
  0.00000000E+00  0.00000000E+00  0.00000000E+00
  0.00000000E+00  0.00000000E+00  0.00000000E+00
  0.00000000E+00  0.00000000E+00  0.00000000E+00
  0.00000000E+00  0.00000000E+00  0.00000000E+00
  0.00000000E+00  0.00000000E+00  0.00000000E+00
  0.00000000E+00  0.00000000E+00  0.00000000E+00
