Graphene-Borophene Bridge with lattice p
   1.00000000000000     
     4.3050122822124441    2.4855000000000000    0.0000000000000000
    -4.3050122822124441    2.4855000000000000    0.0000000000000000
     0.0000000000000000    0.0000000000000000   15.0000000000000000
   B    C 
     8     8
Direct
  0.6744523911978864 -0.0059016728259439  0.1680768226883710
  0.3370845074653392 -0.0057891830539220  0.1681984973642761
  0.0059016728259438  0.3255466088021159  0.1680768226883710
  0.0057891830539220  0.6629144925346636  0.1681984973642761
  0.3367808846395816  0.3255110651035453  0.1665261309251240
  0.6744879348964575  0.6632181153604207  0.1665261309251240
  0.6720029595019893  0.3279960404980131  0.1557792049511958
  0.3387594685156353  0.6612395314843665  0.1808418536696416
  0.2443607870368291  0.2556090314942260  0.4012283418816253
  0.4109691540647702  0.0890099512157712  0.4012961538293920
  0.2443604537698437  0.7556385462301587  0.4012441395890345
  0.4110298410440705  0.5889691589559325  0.4012775030887771
  0.7443470977130026  0.2556519022870001  0.4014289122935354
  0.9109543136514245  0.0890446863485777  0.4013098263636102
  0.7443899685057767  0.7556382129631736  0.4012283418816253
  0.9109890487842311  0.5890298459352327  0.4012961538293920
 
  0.00000000E+00  0.00000000E+00  0.00000000E+00
  0.00000000E+00  0.00000000E+00  0.00000000E+00
  0.00000000E+00  0.00000000E+00  0.00000000E+00
  0.00000000E+00  0.00000000E+00  0.00000000E+00
  0.00000000E+00  0.00000000E+00  0.00000000E+00
  0.00000000E+00  0.00000000E+00  0.00000000E+00
  0.00000000E+00  0.00000000E+00  0.00000000E+00
  0.00000000E+00  0.00000000E+00  0.00000000E+00
  0.00000000E+00  0.00000000E+00  0.00000000E+00
  0.00000000E+00  0.00000000E+00  0.00000000E+00
  0.00000000E+00  0.00000000E+00  0.00000000E+00
  0.00000000E+00  0.00000000E+00  0.00000000E+00
  0.00000000E+00  0.00000000E+00  0.00000000E+00
  0.00000000E+00  0.00000000E+00  0.00000000E+00
  0.00000000E+00  0.00000000E+00  0.00000000E+00
  0.00000000E+00  0.00000000E+00  0.00000000E+00
