Graphene-Borophene Hollow 1 with lattice
   1.00000000000000     
     4.3471011168363676    2.5097999999999998    0.0000000000000000
    -4.3471011168363676    2.5097999999999998    0.0000000000000000
     0.0000000000000000    0.0000000000000000   15.0000000000000000
   B    C 
     8     8
Direct
  0.6695350860747352 -0.0000100005215309  0.1617786463560253
  0.3307579853280964  0.0000947652626181  0.1619274242586649
  0.0000100005215310  0.3304639139252673  0.1617786463560253
 -0.0000947652626181  0.6692410146719060  0.1619274242586649
  0.3308337315682549  0.3307213768562706  0.1619939423961697
  0.6692776231437318  0.6691652684317475  0.1619939423961697
  0.6666291815787372  0.3333698184212655  0.1804013768918243
  0.3332856968568879  0.6667133031431146  0.1587233012430017
  0.2815696411065474  0.2255631540601900  0.4062968751514580
  0.4459725092901364  0.0538082783654408  0.4052765933452532
  0.2777805909113945  0.7222184090886079  0.4045277586475367
  0.4436173828328709  0.5563816171671317  0.4056205733842810
  0.7751435406336444  0.2248554593663581  0.4060067454323552
  0.9439371167306078  0.0560618832693948  0.4069732813858686
  0.7744358459398125  0.7184293588934553  0.4062968751514580
  0.9461907216345617  0.5540264907098661  0.4052765933452532
 
  0.00000000E+00  0.00000000E+00  0.00000000E+00
  0.00000000E+00  0.00000000E+00  0.00000000E+00
  0.00000000E+00  0.00000000E+00  0.00000000E+00
  0.00000000E+00  0.00000000E+00  0.00000000E+00
  0.00000000E+00  0.00000000E+00  0.00000000E+00
  0.00000000E+00  0.00000000E+00  0.00000000E+00
  0.00000000E+00  0.00000000E+00  0.00000000E+00
  0.00000000E+00  0.00000000E+00  0.00000000E+00
  0.00000000E+00  0.00000000E+00  0.00000000E+00
  0.00000000E+00  0.00000000E+00  0.00000000E+00
  0.00000000E+00  0.00000000E+00  0.00000000E+00
  0.00000000E+00  0.00000000E+00  0.00000000E+00
  0.00000000E+00  0.00000000E+00  0.00000000E+00
  0.00000000E+00  0.00000000E+00  0.00000000E+00
  0.00000000E+00  0.00000000E+00  0.00000000E+00
  0.00000000E+00  0.00000000E+00  0.00000000E+00
