Graphene-Borophene Hollow_1 with lattice
   1.00000000000000     
     4.3119404854427197    2.4895000000000000    0.0000000000000000
    -4.3119404854427197    2.4895000000000000    0.0000000000000000
     0.0000000000000000    0.0000000000000000   15.0000000000000000
   B    C 
     8     8
Direct
  0.6703576533436747 -0.0002308078189883  0.0999785435011186
  0.3296555135824927 -0.0000189550729633  0.0999981994916561
  0.0002308078189883  0.3296413466563278  0.0999785435011186
  0.0000189550729633  0.6703434864175097  0.0999981994916561
  0.3295395079974034  0.3294655006302450  0.1000061714975582
  0.6705334993697576  0.6704594920025990  0.1000061714975582
  0.6664977332536585  0.3335012667463441  0.0992040748271044
  0.3332203153629577  0.6667786846370448  0.1007981141577850
  0.2778084731064984  0.2222729256226527  0.3355920275306040
  0.4444816965958898  0.0556481163674571  0.3356333306509032
  0.2777573759994588  0.7222416240005437  0.3355714588663528
  0.4445112508045866  0.5554877491954160  0.3356482605868322
  0.7777581731352000  0.2222408268648025  0.3356243039962445
  0.9444339754355069  0.0555650245644957  0.3355372422220077
  0.7777260743773499  0.7221905268935042  0.3355920275306040
  0.9443508836325455  0.5555173034041128  0.3356333306509032
 
  0.00000000E+00  0.00000000E+00  0.00000000E+00
  0.00000000E+00  0.00000000E+00  0.00000000E+00
  0.00000000E+00  0.00000000E+00  0.00000000E+00
  0.00000000E+00  0.00000000E+00  0.00000000E+00
  0.00000000E+00  0.00000000E+00  0.00000000E+00
  0.00000000E+00  0.00000000E+00  0.00000000E+00
  0.00000000E+00  0.00000000E+00  0.00000000E+00
  0.00000000E+00  0.00000000E+00  0.00000000E+00
  0.00000000E+00  0.00000000E+00  0.00000000E+00
  0.00000000E+00  0.00000000E+00  0.00000000E+00
  0.00000000E+00  0.00000000E+00  0.00000000E+00
  0.00000000E+00  0.00000000E+00  0.00000000E+00
  0.00000000E+00  0.00000000E+00  0.00000000E+00
  0.00000000E+00  0.00000000E+00  0.00000000E+00
  0.00000000E+00  0.00000000E+00  0.00000000E+00
  0.00000000E+00  0.00000000E+00  0.00000000E+00
