Graphene-Borophene Top with lattice para
   1.00000000000000     
     4.3734282891114127    2.5249999999999986    0.0000000000000000
    -4.3734282891114127    2.5249999999999986    0.0000000000000000
     0.0000000000000000    0.0000000000000000   15.0000000000000000
   B    C 
     8     8
Direct
  0.6677867948518676 -0.0000172811631055  0.1665814388569686
  0.3321949239850294 -0.0000172811631055  0.1665814388569685
  0.0000172811631055  0.3322122051481347  0.1665814388569686
  0.0000172811631055  0.6678040760149734  0.1665814388569686
  0.3321949239850294  0.3322122051481347  0.1665814388569686
  0.6677867948518676  0.6678040760149734  0.1665814388569686
  0.6666659999999993  0.3333330000000032  0.1768744011815262
  0.3333330000000032  0.6666659999999993  0.1562465230956505
  0.1666755493943482  0.3333520987887009  0.4011081067565816
  0.3333113792292023  0.1666551896145989  0.4012036859365914
  0.1666755493943482  0.8333234506056546  0.4011081067565816
  0.3333330000000032  0.6666659999999993  0.4010748945007568
  0.6666659999999993  0.3333330000000032  0.4012468366674302
  0.8333438103854036  0.1666551896145989  0.4012036859365914
  0.6666469012113020  0.8333234506056546  0.4011081067565816
  0.8333438103854036  0.6666876207708005  0.4012036859365913
 
  0.00000000E+00  0.00000000E+00  0.00000000E+00
  0.00000000E+00  0.00000000E+00  0.00000000E+00
  0.00000000E+00  0.00000000E+00  0.00000000E+00
  0.00000000E+00  0.00000000E+00  0.00000000E+00
  0.00000000E+00  0.00000000E+00  0.00000000E+00
  0.00000000E+00  0.00000000E+00  0.00000000E+00
  0.00000000E+00  0.00000000E+00  0.00000000E+00
  0.00000000E+00  0.00000000E+00  0.00000000E+00
  0.00000000E+00  0.00000000E+00  0.00000000E+00
  0.00000000E+00  0.00000000E+00  0.00000000E+00
  0.00000000E+00  0.00000000E+00  0.00000000E+00
  0.00000000E+00  0.00000000E+00  0.00000000E+00
  0.00000000E+00  0.00000000E+00  0.00000000E+00
  0.00000000E+00  0.00000000E+00  0.00000000E+00
  0.00000000E+00  0.00000000E+00  0.00000000E+00
  0.00000000E+00  0.00000000E+00  0.00000000E+00
