Graphene-B4C3 Hollow 2 with lattice para
   1.00000000000000     
     4.1915629543166810    2.4199999999999990    0.0000000000000000
    -4.1915629543166810    2.4199999999999990    0.0000000000000000
     0.0000000000000000    0.0000000000000000   15.0000000000000000
   B    C 
     4    11
Direct
  0.0043717589068412  0.0029025490100418  0.0995670300093737
  0.3595293679806525  0.0029098432564625  0.1011706686236519
  0.0043815744943580  0.3580597306834825  0.1011726310263580
  0.6492239084118830  0.6477523235578085  0.1011774593570626
  0.3281004011083764  0.3266283687115887  0.1009163865805690
  0.6806587355212839  0.0029102997130042  0.1009251223277762
  0.0043838586351231  0.6791875658323604  0.1009272871671942
  0.1664761074894592  0.3332151750717349  0.3381993538932622
  0.3331605069901775  0.1665310501155290  0.3382011960611762
  0.1665144956759372  0.8332389585346739  0.3382037833031087
  0.3331638199800195  0.6665530759093803  0.3380917866165242
  0.6664977985557154  0.3332179365293648  0.3380917375676953
  0.8331835335531512  0.1665687522105244  0.3382031470473474
  0.6665007048493498  0.8332028293249943  0.3381997391526975
  0.8331474278476809  0.6665555415390607  0.3381986712662305
 
  0.00000000E+00  0.00000000E+00  0.00000000E+00
  0.00000000E+00  0.00000000E+00  0.00000000E+00
  0.00000000E+00  0.00000000E+00  0.00000000E+00
  0.00000000E+00  0.00000000E+00  0.00000000E+00
  0.00000000E+00  0.00000000E+00  0.00000000E+00
  0.00000000E+00  0.00000000E+00  0.00000000E+00
  0.00000000E+00  0.00000000E+00  0.00000000E+00
  0.00000000E+00  0.00000000E+00  0.00000000E+00
  0.00000000E+00  0.00000000E+00  0.00000000E+00
  0.00000000E+00  0.00000000E+00  0.00000000E+00
  0.00000000E+00  0.00000000E+00  0.00000000E+00
  0.00000000E+00  0.00000000E+00  0.00000000E+00
  0.00000000E+00  0.00000000E+00  0.00000000E+00
  0.00000000E+00  0.00000000E+00  0.00000000E+00
  0.00000000E+00  0.00000000E+00  0.00000000E+00
