Graphene-Borophene Bridge with lattice p
   1.00000000000000     
     4.3471011168363676    2.5097999999999998    0.0000000000000000
    -4.3471011168363676    2.5097999999999998    0.0000000000000000
     0.0000000000000000    0.0000000000000000   15.0000000000000000
   B    C 
     8     8
Direct
  0.6695732529450000 -0.0000224449620964  0.1636013867612725
  0.3308072232435495  0.0000867551033542  0.1637946731771105
  0.0000224449620964  0.3304257470550024  0.1636013867612725
 -0.0000867551033542  0.6691917767564529  0.1637946731771105
  0.3308564410760722  0.3307275126775144  0.1638273190872281
  0.6692714873224881  0.6691425589239304  0.1638273190872281
  0.6666191937051511  0.3333798062948513  0.1827090859462416
  0.3332785178725921  0.6667204821274108  0.1605141540703454
  0.2530841339392770  0.2532985425177985  0.4038073206665038
  0.4187936254938536  0.0823103310140927  0.4029000760171285
  0.2503971377721589  0.7496018622278438  0.4022949275735305
  0.4158895165927003  0.5841094834073021  0.4032745921065590
  0.7480195851351338  0.2519794148648687  0.4035174967696032
  0.9157447352418706  0.0842542647581320  0.4043615254486050
  0.7467004574822039  0.7469148660607253  0.4038073206665038
  0.9176886689859097  0.5812053745061491  0.4029000760171285
 
  0.00000000E+00  0.00000000E+00  0.00000000E+00
  0.00000000E+00  0.00000000E+00  0.00000000E+00
  0.00000000E+00  0.00000000E+00  0.00000000E+00
  0.00000000E+00  0.00000000E+00  0.00000000E+00
  0.00000000E+00  0.00000000E+00  0.00000000E+00
  0.00000000E+00  0.00000000E+00  0.00000000E+00
  0.00000000E+00  0.00000000E+00  0.00000000E+00
  0.00000000E+00  0.00000000E+00  0.00000000E+00
  0.00000000E+00  0.00000000E+00  0.00000000E+00
  0.00000000E+00  0.00000000E+00  0.00000000E+00
  0.00000000E+00  0.00000000E+00  0.00000000E+00
  0.00000000E+00  0.00000000E+00  0.00000000E+00
  0.00000000E+00  0.00000000E+00  0.00000000E+00
  0.00000000E+00  0.00000000E+00  0.00000000E+00
  0.00000000E+00  0.00000000E+00  0.00000000E+00
  0.00000000E+00  0.00000000E+00  0.00000000E+00
