Graphene-BC3 Hollow with lattice paramet
   1.00000000000000     
     4.3639020096697863    2.5194999999999999    0.0000000000000000
    -4.3639020096697863    2.5194999999999999    0.0000000000000000
     0.0000000000000000    0.0000000000000000   15.0000000000000000
   B    C 
     2    14
Direct
  0.3382547489578271  0.6691257214072993  0.1004818903643480
  0.6715905981626747  0.3357931244975756  0.1001689038535817
  0.1645716636885770  0.3217659837507979  0.1001747641442262
  0.3241534986069387  0.1620769778154100  0.1001848194162517
  0.1645724564257360  0.8428035497095528  0.1001747643644601
  0.8452996758936264  0.1620740694519556  0.1001720464903486
  0.6856049318704721  0.8428013328429691  0.1001620281735431
  0.8452989925116472  0.6832242620471581  0.1001720531988456
  0.3334332745856390  0.1667170607097649  0.3253737485368203
  0.5001199493706379  0.0001248906476061  0.3253500635325768
  0.3334124825735754  0.6667066564843807  0.3250655524909571
  0.5001199503981859  0.4999963123989485  0.3253500660981479
  0.8334068404089928  0.1667184674286302  0.3253690489427588
  0.0000820542707775  0.0000416632148838  0.3253471481770930
  0.8334068411558055  0.6666892638602790  0.3253690426587258
 -0.0000026255477802  0.4999993303994819  0.3253507262239878
 
  0.00000000E+00  0.00000000E+00  0.00000000E+00
  0.00000000E+00  0.00000000E+00  0.00000000E+00
  0.00000000E+00  0.00000000E+00  0.00000000E+00
  0.00000000E+00  0.00000000E+00  0.00000000E+00
  0.00000000E+00  0.00000000E+00  0.00000000E+00
  0.00000000E+00  0.00000000E+00  0.00000000E+00
  0.00000000E+00  0.00000000E+00  0.00000000E+00
  0.00000000E+00  0.00000000E+00  0.00000000E+00
  0.00000000E+00  0.00000000E+00  0.00000000E+00
  0.00000000E+00  0.00000000E+00  0.00000000E+00
  0.00000000E+00  0.00000000E+00  0.00000000E+00
  0.00000000E+00  0.00000000E+00  0.00000000E+00
  0.00000000E+00  0.00000000E+00  0.00000000E+00
  0.00000000E+00  0.00000000E+00  0.00000000E+00
  0.00000000E+00  0.00000000E+00  0.00000000E+00
  0.00000000E+00  0.00000000E+00  0.00000000E+00
