Graphene-BC3 Bridge with lattice paramet
   1.00000000000000     
     4.3673661112849240    2.5215000000000001    0.0000000000000000
    -4.3673661112849240    2.5215000000000001    0.0000000000000000
     0.0000000000000000    0.0000000000000000   15.0000000000000000
   B    C 
     2    14
Direct
  0.3213968847333201  0.6871855423541220  0.1007634598003799
  0.6547249237640108  0.3538271426756158  0.1004966011408245
  0.1476414555274254  0.3398096046651099  0.1000174657038885
  0.3072091965706711  0.1802108852955494  0.1007309889240973
  0.1476147719541373  0.8609542614706845  0.1011726222463178
  0.8284127942441910  0.1801696443260653  0.0997074042303096
  0.6687381232055118  0.8608854347198823  0.1000439084208141
  0.8284133414501780  0.7013921954435590  0.1007555434018953
  0.2669719776351658  0.2318892411590273  0.3259584432553601
  0.4335999634677850  0.0653169765091977  0.3259095415382421
  0.2669572292006011  0.7319696779921856  0.3256711758586551
  0.4336922768680447  0.5652322639933517  0.3258252646235230
  0.7669721210116182  0.2319494310591027  0.3258247322676321
  0.9336681102531372  0.0652555165653638  0.3259299304406271
  0.7670388611653208  0.7319559856417729  0.3259571788577779
  0.9336066356155850  0.5653215294627331  0.3259024059563123
 
  0.00000000E+00  0.00000000E+00  0.00000000E+00
  0.00000000E+00  0.00000000E+00  0.00000000E+00
  0.00000000E+00  0.00000000E+00  0.00000000E+00
  0.00000000E+00  0.00000000E+00  0.00000000E+00
  0.00000000E+00  0.00000000E+00  0.00000000E+00
  0.00000000E+00  0.00000000E+00  0.00000000E+00
  0.00000000E+00  0.00000000E+00  0.00000000E+00
  0.00000000E+00  0.00000000E+00  0.00000000E+00
  0.00000000E+00  0.00000000E+00  0.00000000E+00
  0.00000000E+00  0.00000000E+00  0.00000000E+00
  0.00000000E+00  0.00000000E+00  0.00000000E+00
  0.00000000E+00  0.00000000E+00  0.00000000E+00
  0.00000000E+00  0.00000000E+00  0.00000000E+00
  0.00000000E+00  0.00000000E+00  0.00000000E+00
  0.00000000E+00  0.00000000E+00  0.00000000E+00
  0.00000000E+00  0.00000000E+00  0.00000000E+00
