Graphene-B4C3 Hollow 1 with lattice para
   1.00000000000000     
     4.1742424462409931    2.4099999999999993    0.0000000000000000
    -4.1742424462409931    2.4099999999999993    0.0000000000000000
     0.0000000000000000    0.0000000000000000   15.0000000000000000
   B    C 
     4    11
Direct
  0.0130084523402588 -0.0050850268662536  0.0964492842454307
  0.3680160931759268 -0.0050498938084928  0.1028327254663177
  0.0129975359428641  0.3497942047685350  0.1029887670482780
  0.6579907475565189  0.6397852560215473  0.1029382421199451
  0.3367083941509442  0.3183738870405420  0.1019966174524536
  0.6893808003321975 -0.0049984525030921  0.1019917411372602
  0.0129118129161966  0.6711600735093918  0.1020296316482309
  0.1034631860578407  0.3957975103722408  0.3375421460118043
  0.2700519590985678  0.2291583801674014  0.3376629600242935
  0.1034006461175690  0.8958253729484339  0.3375951403475707
  0.2700631648177294  0.7292081371205772  0.3374967539514996
  0.6033575279310950  0.3957931823204924  0.3375173409976231
  0.7700221268038502  0.2291538855401911  0.3375311481245280
  0.6033853364041801  0.8957805989027289  0.3376662667414061
  0.7700917719098114  0.7291813289102239  0.3375405680166790
 
  0.00000000E+00  0.00000000E+00  0.00000000E+00
  0.00000000E+00  0.00000000E+00  0.00000000E+00
  0.00000000E+00  0.00000000E+00  0.00000000E+00
  0.00000000E+00  0.00000000E+00  0.00000000E+00
  0.00000000E+00  0.00000000E+00  0.00000000E+00
  0.00000000E+00  0.00000000E+00  0.00000000E+00
  0.00000000E+00  0.00000000E+00  0.00000000E+00
  0.00000000E+00  0.00000000E+00  0.00000000E+00
  0.00000000E+00  0.00000000E+00  0.00000000E+00
  0.00000000E+00  0.00000000E+00  0.00000000E+00
  0.00000000E+00  0.00000000E+00  0.00000000E+00
  0.00000000E+00  0.00000000E+00  0.00000000E+00
  0.00000000E+00  0.00000000E+00  0.00000000E+00
  0.00000000E+00  0.00000000E+00  0.00000000E+00
  0.00000000E+00  0.00000000E+00  0.00000000E+00
