Graphene-Borophene Bridge with lattice p
   1.00000000000000     
     4.3483135524016658    2.5105000000000000    0.0000000000000000
    -4.3483135524016658    2.5105000000000000    0.0000000000000000
     0.0000000000000000    0.0000000000000000   15.0000000000000000
   B    C 
     8     8
Direct
  0.6692669003000716 -0.0000003897648123  0.1002638219802999
  0.3307338550163492  0.0000002810396031  0.1002646506656023
  0.0000003897648123  0.3307320996999307  0.1002638219802999
 -0.0000002810396031  0.6692651449836534  0.1002646506656023
  0.3307340023141553  0.3307336075013433  0.1002647781819048
  0.6692653924986591  0.6692649976858472  0.1002647781819048
  0.6666656268208063  0.3333333731791961  0.0995712989369103
  0.3333325357784805  0.6666664642215219  0.1010250773240874
  0.2500276683516789  0.2500385317634027  0.4687959040477041
  0.4166934560544357  0.0833159476400519  0.4687916654918148
  0.2499981022194212  0.7500008977805813  0.4687888149061927
  0.4166631587406029  0.5833358412593995  0.4687934457224143
  0.7499730360857187  0.2500259639142839  0.4687945553345162
  0.9166623031645638  0.0833366968354387  0.4687985003745992
  0.7499604682365998  0.7499713316483235  0.4687959040477041
  0.9166830523599506  0.5833055439455670  0.4687916654918148
 
  0.00000000E+00  0.00000000E+00  0.00000000E+00
  0.00000000E+00  0.00000000E+00  0.00000000E+00
  0.00000000E+00  0.00000000E+00  0.00000000E+00
  0.00000000E+00  0.00000000E+00  0.00000000E+00
  0.00000000E+00  0.00000000E+00  0.00000000E+00
  0.00000000E+00  0.00000000E+00  0.00000000E+00
  0.00000000E+00  0.00000000E+00  0.00000000E+00
  0.00000000E+00  0.00000000E+00  0.00000000E+00
  0.00000000E+00  0.00000000E+00  0.00000000E+00
  0.00000000E+00  0.00000000E+00  0.00000000E+00
  0.00000000E+00  0.00000000E+00  0.00000000E+00
  0.00000000E+00  0.00000000E+00  0.00000000E+00
  0.00000000E+00  0.00000000E+00  0.00000000E+00
  0.00000000E+00  0.00000000E+00  0.00000000E+00
  0.00000000E+00  0.00000000E+00  0.00000000E+00
  0.00000000E+00  0.00000000E+00  0.00000000E+00
