Graphene-BC3 Hollow with lattice paramet
   1.00000000000000     
     4.3682321366887082    2.5219999999999998    0.0000000000000000
    -4.3682321366887082    2.5219999999999998    0.0000000000000000
     0.0000000000000000    0.0000000000000000   15.0000000000000000
   B    C 
     2    14
Direct
  0.3382267790393606  0.6691092914004919  0.1135164756120848
  0.6715630016761197  0.3357760189311197  0.1131880102132860
  0.1645067983010150  0.3216666197664115  0.1131676017675950
  0.3240417509786970  0.1620163738330881  0.1131783668886059
  0.1645058887169892  0.8428281052078825  0.1131696454991685
  0.8453179758097733  0.1620152887486697  0.1131702575936739
  0.6856633392306546  0.8428255231866564  0.1131623757915955
  0.8453176632157972  0.6832945565295211  0.1131723513072679
  0.3334575116165915  0.1667331840887579  0.3380397982623328
  0.5001485156220148  0.0001463596536862  0.3380118165370073
  0.3334368286842637  0.6667228454507331  0.3377124254008235
  0.5001485016066523  0.5000112145215655  0.3380118241402579
  0.8334312663618003  0.1667344572346856  0.3380348490269418
  0.0001084557042751  0.0000587106571635  0.3380169204043274
  0.8334312984781158  0.6667057182682756  0.3380348939984879
  0.0000197582912131  0.5000143991879858  0.3380123875565442
 
  0.00000000E+00  0.00000000E+00  0.00000000E+00
  0.00000000E+00  0.00000000E+00  0.00000000E+00
  0.00000000E+00  0.00000000E+00  0.00000000E+00
  0.00000000E+00  0.00000000E+00  0.00000000E+00
  0.00000000E+00  0.00000000E+00  0.00000000E+00
  0.00000000E+00  0.00000000E+00  0.00000000E+00
  0.00000000E+00  0.00000000E+00  0.00000000E+00
  0.00000000E+00  0.00000000E+00  0.00000000E+00
  0.00000000E+00  0.00000000E+00  0.00000000E+00
  0.00000000E+00  0.00000000E+00  0.00000000E+00
  0.00000000E+00  0.00000000E+00  0.00000000E+00
  0.00000000E+00  0.00000000E+00  0.00000000E+00
  0.00000000E+00  0.00000000E+00  0.00000000E+00
  0.00000000E+00  0.00000000E+00  0.00000000E+00
  0.00000000E+00  0.00000000E+00  0.00000000E+00
  0.00000000E+00  0.00000000E+00  0.00000000E+00
