Graphene-B4C3 Top with lattice parameter
   1.00000000000000     
     4.1872328272977608    2.4175000000000000    0.0000000000000000
    -4.1872328272977608    2.4175000000000000    0.0000000000000000
     0.0000000000000000    0.0000000000000000   15.0000000000000000
   B    C 
     4    11
Direct
  0.0040515805565691  0.0026975821969305  0.1019586847089836
  0.3592265666094701  0.0029560830569644  0.1004676861861396
  0.0037755950523477  0.3576011414213987  0.1004685011788765
  0.6491392031593844  0.6475140446243228  0.1004646739667374
  0.3278698749762484  0.3262440824979834  0.1005687512994262
  0.6804927342324586  0.0029574921047940  0.1005677979486052
  0.0037784440003590  0.6788673918761232  0.1005647827329417
  0.0001396721712234  0.5000666376742329  0.3348092398394448
  0.1667891025135544  0.3334566651230506  0.3348476934831116
  0.0001206104203876  0.0000737643271288  0.3347688709900568
  0.1668316655233117  0.8334051757245062  0.3348515562938341
  0.5001302537903145  0.5001036240973949  0.3348120716915846
  0.6667861983919215  0.3334085501450447  0.3347070150964014
  0.5000918511437522  0.0000547315340675  0.3348075962641017
  0.6667373141253898  0.8333603669293833  0.3348477449864367
 
  0.00000000E+00  0.00000000E+00  0.00000000E+00
  0.00000000E+00  0.00000000E+00  0.00000000E+00
  0.00000000E+00  0.00000000E+00  0.00000000E+00
  0.00000000E+00  0.00000000E+00  0.00000000E+00
  0.00000000E+00  0.00000000E+00  0.00000000E+00
  0.00000000E+00  0.00000000E+00  0.00000000E+00
  0.00000000E+00  0.00000000E+00  0.00000000E+00
  0.00000000E+00  0.00000000E+00  0.00000000E+00
  0.00000000E+00  0.00000000E+00  0.00000000E+00
  0.00000000E+00  0.00000000E+00  0.00000000E+00
  0.00000000E+00  0.00000000E+00  0.00000000E+00
  0.00000000E+00  0.00000000E+00  0.00000000E+00
  0.00000000E+00  0.00000000E+00  0.00000000E+00
  0.00000000E+00  0.00000000E+00  0.00000000E+00
  0.00000000E+00  0.00000000E+00  0.00000000E+00
