Graphene-BC3 Bridge with lattice paramet
   1.00000000000000     
     4.3682321366887082    2.5219999999999998    0.0000000000000000
    -4.3682321366887082    2.5219999999999998    0.0000000000000000
     0.0000000000000000    0.0000000000000000   15.0000000000000000
   B    C 
     2    14
Direct
  0.3072203227201885  0.7015903684203502  0.1102442413857306
  0.6405926724463489  0.3682335739999607  0.1099235079264491
  0.1335273743693784  0.3541708084641342  0.1098072943636179
  0.2930314193849131  0.1945074747150863  0.1099713360584882
  0.1334754370591414  0.8753446103324161  0.1100363843344711
  0.8143095886686312  0.1944833492190501  0.1097358412819900
  0.6546505208409635  0.8752988210813426  0.1098098187665624
  0.8143001506546905  0.7157781091814881  0.1099710679006072
  0.2811218457130166  0.2175657622135990  0.3345981360131577
  0.4477903610905954  0.0509769288689259  0.3345486168783899
  0.2810944282579516  0.7175864725909122  0.3342594446441816
  0.4478301441890746  0.5508508917363836  0.3345519783444952
  0.7810949838993820  0.2175885752241291  0.3345556576651576
  0.9477911058755267  0.0508950144735541  0.3345813015645080
  0.7811196863503433  0.7175627962211257  0.3345927078860640
  0.9477086251465602  0.5508917765908669  0.3345459983194935
 
  0.00000000E+00  0.00000000E+00  0.00000000E+00
  0.00000000E+00  0.00000000E+00  0.00000000E+00
  0.00000000E+00  0.00000000E+00  0.00000000E+00
  0.00000000E+00  0.00000000E+00  0.00000000E+00
  0.00000000E+00  0.00000000E+00  0.00000000E+00
  0.00000000E+00  0.00000000E+00  0.00000000E+00
  0.00000000E+00  0.00000000E+00  0.00000000E+00
  0.00000000E+00  0.00000000E+00  0.00000000E+00
  0.00000000E+00  0.00000000E+00  0.00000000E+00
  0.00000000E+00  0.00000000E+00  0.00000000E+00
  0.00000000E+00  0.00000000E+00  0.00000000E+00
  0.00000000E+00  0.00000000E+00  0.00000000E+00
  0.00000000E+00  0.00000000E+00  0.00000000E+00
  0.00000000E+00  0.00000000E+00  0.00000000E+00
  0.00000000E+00  0.00000000E+00  0.00000000E+00
  0.00000000E+00  0.00000000E+00  0.00000000E+00
