Graphene-BC3 Bridge with lattice parameter 5.044 and distance 3.667
        1.0
        4.3682321366887082    2.5219999999999998    0.0000000000000000
       -4.3682321366887082    2.5219999999999998    0.0000000000000000
        0.0000000000000000    0.0000000000000000   15.0000000000000000
        B   C
        2   14
        Direct
        0.3383303433200950  0.6691643220287062  0.1000000000000000
        0.6716552153790474  0.3358414604455504  0.1000000000000000
        0.1637394633814182  0.3199996222090675  0.1000000000000000
        0.3225021842022073  0.1612639661328572  0.1000000000000000
        0.1637643005245266  0.8437638408621737  0.1000000000000000
        0.8462386341522503  0.1612368417574501  0.1000000000000000
        0.6874985035840169  0.8437300034210438  0.1000000000000000
        0.8462673554564475  0.6849959431431500  0.1000000000000000
        0.2499993333333326  0.2499996666666699  0.3444666666666667
        0.4166663333333365  0.0833326666666660  0.3444666666666667
        0.2499993333333326  0.7499996666666698  0.3444666666666667
        0.4166663333333365  0.5833326666666659  0.3444666666666667
        0.7499993333333327  0.2499996666666699  0.3444666666666667
        0.9166663333333366  0.0833326666666660  0.3444666666666667
        0.7499993333333327  0.7499996666666698  0.3444666666666667
        0.9166663333333366  0.5833326666666659  0.3444666666666667