Graphene-Borophene Top with lattice para
   1.00000000000000     
     4.3119404854427197    2.4895000000000000    0.0000000000000000
    -4.3119404854427197    2.4895000000000000    0.0000000000000000
     0.0000000000000000    0.0000000000000000   15.0000000000000000
   B    C 
     8     8
Direct
  0.6685217438292516  0.0000252083309695  0.1672595214265412
  0.3315024645017202  0.0000252083309695  0.1672595214265412
 -0.0000252083309695  0.3314772561707506  0.1672595214265412
 -0.0000252083309695  0.6684965354982820  0.1672595214265412
  0.3315024645017202  0.3314772561707507  0.1672595214265412
  0.6685217438292516  0.6684965354982820  0.1672595214265412
  0.6666659999999993  0.3333330000000032  0.1542239657376090
  0.3333330000000032  0.6666659999999993  0.1802465683895523
  0.1666518420684854  0.3333046841369753  0.4005218495024196
  0.3333293074071350  0.1666641537035652  0.4004295136666294
  0.1666518420684854  0.8333471579315176  0.4005218495024196
  0.3333330000000032  0.6666659999999993  0.4005700654136679
  0.6666659999999993  0.3333330000000032  0.4004148490594670
  0.8333348462964374  0.1666641537035652  0.4004295136666294
  0.6666943158630276  0.8333471579315176  0.4005218495024196
  0.8333348462964373  0.6666696925928672  0.4004295136666294
 
  0.00000000E+00  0.00000000E+00  0.00000000E+00
  0.00000000E+00  0.00000000E+00  0.00000000E+00
  0.00000000E+00  0.00000000E+00  0.00000000E+00
  0.00000000E+00  0.00000000E+00  0.00000000E+00
  0.00000000E+00  0.00000000E+00  0.00000000E+00
  0.00000000E+00  0.00000000E+00  0.00000000E+00
  0.00000000E+00  0.00000000E+00  0.00000000E+00
  0.00000000E+00  0.00000000E+00  0.00000000E+00
  0.00000000E+00  0.00000000E+00  0.00000000E+00
  0.00000000E+00  0.00000000E+00  0.00000000E+00
  0.00000000E+00  0.00000000E+00  0.00000000E+00
  0.00000000E+00  0.00000000E+00  0.00000000E+00
  0.00000000E+00  0.00000000E+00  0.00000000E+00
  0.00000000E+00  0.00000000E+00  0.00000000E+00
  0.00000000E+00  0.00000000E+00  0.00000000E+00
  0.00000000E+00  0.00000000E+00  0.00000000E+00
