Graphene-B4C3 Hollow_1 with lattice para
   1.00000000000000     
     4.1967591067393899    2.4230000000000000    0.0000000000000000
    -4.1967591067393899    2.4230000000000000    0.0000000000000000
     0.0000000000000000    0.0000000000000000   15.0000000000000000
   B    C 
     4    11
Direct
  0.0300702853086534  0.9794773527886704  0.1058243758035573
  0.3851355975670359  0.9797207875747205  0.1002438679055260
  0.0300882658328021  0.3344893093825547  0.1002262527683513
  0.6753952792210356  0.6246546816058185  0.1002271262661836
  0.3538214362553163  0.3031096245336471  0.1007508064259142
  0.7067479869836788  0.9796191623620274  0.1007120464369820
  0.0299156480714444  0.6558774823707623  0.1007784700559000
  0.0883993642886693  0.4092176084507031  0.3375925726432101
  0.2551014687768074  0.2425991972975226  0.3376909647461233
  0.0884144041215222  0.9092194948770924  0.3375815197836474
  0.2551029320685174  0.7425271951506573  0.3375800850641610
  0.5883404493232192  0.4091804426523424  0.3375710996808863
  0.7550162670491574  0.2424959523570749  0.3375797017814719
  0.5883329482557116  0.9092150817464173  0.3376973537815431
  0.7549672224319863  0.7424750712944643  0.3375897568565662
 
  0.00000000E+00  0.00000000E+00  0.00000000E+00
  0.00000000E+00  0.00000000E+00  0.00000000E+00
  0.00000000E+00  0.00000000E+00  0.00000000E+00
  0.00000000E+00  0.00000000E+00  0.00000000E+00
  0.00000000E+00  0.00000000E+00  0.00000000E+00
  0.00000000E+00  0.00000000E+00  0.00000000E+00
  0.00000000E+00  0.00000000E+00  0.00000000E+00
  0.00000000E+00  0.00000000E+00  0.00000000E+00
  0.00000000E+00  0.00000000E+00  0.00000000E+00
  0.00000000E+00  0.00000000E+00  0.00000000E+00
  0.00000000E+00  0.00000000E+00  0.00000000E+00
  0.00000000E+00  0.00000000E+00  0.00000000E+00
  0.00000000E+00  0.00000000E+00  0.00000000E+00
  0.00000000E+00  0.00000000E+00  0.00000000E+00
  0.00000000E+00  0.00000000E+00  0.00000000E+00
