Graphene-Borophene Hollow 1 with lattice
   1.00000000000000     
     4.2521847325815934    2.4550000000000001    0.0000000000000000
    -4.2521847325815934    2.4550000000000001    0.0000000000000000
     0.0000000000000000    0.0000000000000000   15.0000000000000000
   B    C 
     8     8
Direct
  0.6702535296489901 -0.0008462564714143  0.1635817887527208
  0.3320821404993882 -0.0008408857154251  0.1644703447828724
  0.0008462564714143  0.3297454703510120  0.1635817887527208
  0.0008408857154251  0.6679168595006140  0.1644703447828724
  0.3317132988660917  0.3299247940361865  0.1664308101795689
  0.6700742059638157  0.6682857011339104  0.1664308101795689
  0.6673472530716195  0.3326517469283829  0.1802105004122745
  0.3339198179341466  0.6660791820658560  0.1485499441824183
  0.2769027714758064  0.2231287824035963  0.4048493576543586
  0.4436277307560086  0.0565686742506832  0.4049725956828210
  0.2768808365439919  0.7231181634560105  0.4051460213394512
  0.4436049756266470  0.5563940243733549  0.4048642888233112
  0.7768663392673366  0.2231326607326665  0.4049135421808849
  0.9436213037025236  0.0563776962974788  0.4045059089569868
  0.7768702175964061  0.7230962285241954  0.4048493576543586
  0.9434303257493195  0.5563712692439936  0.4049725956828210
 
  0.00000000E+00  0.00000000E+00  0.00000000E+00
  0.00000000E+00  0.00000000E+00  0.00000000E+00
  0.00000000E+00  0.00000000E+00  0.00000000E+00
  0.00000000E+00  0.00000000E+00  0.00000000E+00
  0.00000000E+00  0.00000000E+00  0.00000000E+00
  0.00000000E+00  0.00000000E+00  0.00000000E+00
  0.00000000E+00  0.00000000E+00  0.00000000E+00
  0.00000000E+00  0.00000000E+00  0.00000000E+00
  0.00000000E+00  0.00000000E+00  0.00000000E+00
  0.00000000E+00  0.00000000E+00  0.00000000E+00
  0.00000000E+00  0.00000000E+00  0.00000000E+00
  0.00000000E+00  0.00000000E+00  0.00000000E+00
  0.00000000E+00  0.00000000E+00  0.00000000E+00
  0.00000000E+00  0.00000000E+00  0.00000000E+00
  0.00000000E+00  0.00000000E+00  0.00000000E+00
  0.00000000E+00  0.00000000E+00  0.00000000E+00
