Graphene-B4C3 Top with lattice parameter
   1.00000000000000     
     4.2010892337583119    2.4255000000000000    0.0000000000000000
    -4.2010892337583119    2.4255000000000000    0.0000000000000000
     0.0000000000000000    0.0000000000000000   15.0000000000000000
   B    C 
     4    11
Direct
  0.0040454365105793  0.0026923613304304  0.1010979822061563
  0.3592256766402568  0.0029735060497234  0.1004707574787826
  0.0037526840040513  0.3575837808734658  0.1004713282137997
  0.6491471015639557  0.6475086977160089  0.1004682749369258
  0.3277195244168071  0.3260802212383841  0.1004710707997007
  0.6806480724819490  0.0029736968645751  0.1004708922521756
  0.0037583270047061  0.6790075687016014  0.1004681519010467
  0.0001468064002003  0.5000719505265606  0.3349525749189221
  0.1667929620669866  0.3334545155940788  0.3349876562113347
  0.0001262451779009  0.0000764924189130  0.3349160707928647
  0.1668312968895192  0.8334068827537866  0.3349913773692768
  0.5001329108726968  0.5001045950166987  0.3349552826432753
  0.6667901564874221  0.3334110469583041  0.3348526114259157
  0.5000985793796905  0.0000552238784550  0.3349509183395067
  0.6667448867699731  0.8333667934123418  0.3349877171769979
 
  0.00000000E+00  0.00000000E+00  0.00000000E+00
  0.00000000E+00  0.00000000E+00  0.00000000E+00
  0.00000000E+00  0.00000000E+00  0.00000000E+00
  0.00000000E+00  0.00000000E+00  0.00000000E+00
  0.00000000E+00  0.00000000E+00  0.00000000E+00
  0.00000000E+00  0.00000000E+00  0.00000000E+00
  0.00000000E+00  0.00000000E+00  0.00000000E+00
  0.00000000E+00  0.00000000E+00  0.00000000E+00
  0.00000000E+00  0.00000000E+00  0.00000000E+00
  0.00000000E+00  0.00000000E+00  0.00000000E+00
  0.00000000E+00  0.00000000E+00  0.00000000E+00
  0.00000000E+00  0.00000000E+00  0.00000000E+00
  0.00000000E+00  0.00000000E+00  0.00000000E+00
  0.00000000E+00  0.00000000E+00  0.00000000E+00
  0.00000000E+00  0.00000000E+00  0.00000000E+00
