BC3 with lattice parameter 5.169        
   1.00000000000000     
     4.4764850000000003    2.5844999999999998    0.0000000000000000
    -4.4764850000000003    2.5844999999999998    0.0000000000000000
     0.0000000000000000    0.0000000000000000   15.0000000000000000
   B    C 
     2     6
Direct
  0.3383344808398375  0.6691650850935890  0.2500000000000000
  0.6716661210856054  0.3358318452185335  0.2500000000000000
  0.1637458779416018  0.3199992717346051  0.2500000000000000
  0.3224997087175010  0.1612494946981794  0.2500000000000000
  0.1637530695784895  0.8437484637408970  0.2500000000000000
  0.8462453578431577  0.1612513008099959  0.2500000000000000
  0.6874998030888645  0.8437509441153002  0.2500000000000000
  0.8462515809049447  0.6849995945888988  0.2500000000000000
 
  0.00000000E+00  0.00000000E+00  0.00000000E+00
  0.00000000E+00  0.00000000E+00  0.00000000E+00
  0.00000000E+00  0.00000000E+00  0.00000000E+00
  0.00000000E+00  0.00000000E+00  0.00000000E+00
  0.00000000E+00  0.00000000E+00  0.00000000E+00
  0.00000000E+00  0.00000000E+00  0.00000000E+00
  0.00000000E+00  0.00000000E+00  0.00000000E+00
  0.00000000E+00  0.00000000E+00  0.00000000E+00
