Graphene-B4C3 Hollow 2 with lattice para
   1.00000000000000     
     4.1863668018939757    2.4169999999999998    0.0000000000000000
    -4.1863668018939757    2.4169999999999998    0.0000000000000000
     0.0000000000000000    0.0000000000000000   15.0000000000000000
   B    C 
     4    11
Direct
  0.0044004189791919  0.0029240203609112  0.0993823198462534
  0.3595481878670612  0.0029279503405390  0.1012496892735589
  0.0044082144076323  0.3580707704032838  0.1012518811167798
  0.6492587651529474  0.6477786890550745  0.1012554575844793
  0.3281820881059869  0.3267023243523167  0.1009719923791040
  0.6806297564964963  0.0029282725809939  0.1009672601185547
  0.0044099680731916  0.6791506829206775  0.1009668423831260
  0.1664522719491139  0.3332010720346674  0.3381759313115812
  0.3331394730299155  0.1665142371702895  0.3381777215236772
  0.1664924982407939  0.8332224244983857  0.3381799787726075
  0.3331411746994275  0.6665366668162249  0.3380686892251423
  0.6664743449705701  0.3332019853520221  0.3380686788244719
  0.8331600536867365  0.1665537916992902  0.3381793962244597
  0.6664747660576782  0.8331842889201810  0.3381756585503205
  0.8331220182832644  0.6665368234951533  0.3381745028659099
 
  0.00000000E+00  0.00000000E+00  0.00000000E+00
  0.00000000E+00  0.00000000E+00  0.00000000E+00
  0.00000000E+00  0.00000000E+00  0.00000000E+00
  0.00000000E+00  0.00000000E+00  0.00000000E+00
  0.00000000E+00  0.00000000E+00  0.00000000E+00
  0.00000000E+00  0.00000000E+00  0.00000000E+00
  0.00000000E+00  0.00000000E+00  0.00000000E+00
  0.00000000E+00  0.00000000E+00  0.00000000E+00
  0.00000000E+00  0.00000000E+00  0.00000000E+00
  0.00000000E+00  0.00000000E+00  0.00000000E+00
  0.00000000E+00  0.00000000E+00  0.00000000E+00
  0.00000000E+00  0.00000000E+00  0.00000000E+00
  0.00000000E+00  0.00000000E+00  0.00000000E+00
  0.00000000E+00  0.00000000E+00  0.00000000E+00
  0.00000000E+00  0.00000000E+00  0.00000000E+00
