Graphene-Borophene Hollow 1 with lattice
   1.00000000000000     
     4.3180026632692110    2.4929999999999999    0.0000000000000000
    -4.3180026632692110    2.4929999999999999    0.0000000000000000
     0.0000000000000000    0.0000000000000000   15.0000000000000000
   B    C 
     8     8
Direct
  0.6750465864357446 -0.0057230569372791  0.1676288371804399
  0.3362903982417242 -0.0056175756598331  0.1673475894924225
  0.0057230569372791  0.3249524135642577  0.1676288371804399
  0.0056175756598331  0.6637086017582787  0.1673475894924225
  0.3362772969695506  0.3249890946545462  0.1674138063205833
  0.6750099053454562  0.6637217030304519  0.1674138063205833
  0.6722098143781051  0.3277891856218978  0.1614373355391378
  0.3389007342724639  0.6610982657275386  0.1735390119560888
  0.2721648632504995  0.2278651946402496  0.4021620124076000
  0.4388175854618208  0.0612246629315818  0.4021368028778324
  0.2721397619665670  0.7278592380334357  0.4020802902689142
  0.4388307774120927  0.5611682225879100  0.4022007753527301
  0.7721450179717927  0.2278539820282103  0.4021273779870151
  0.9388003721578286  0.0611986278421737  0.4020371123383687
  0.7721338053597533  0.7278341367495033  0.4021620124076000
  0.9387743370684207  0.5611814145381816  0.4021368028778324
 
  0.00000000E+00  0.00000000E+00  0.00000000E+00
  0.00000000E+00  0.00000000E+00  0.00000000E+00
  0.00000000E+00  0.00000000E+00  0.00000000E+00
  0.00000000E+00  0.00000000E+00  0.00000000E+00
  0.00000000E+00  0.00000000E+00  0.00000000E+00
  0.00000000E+00  0.00000000E+00  0.00000000E+00
  0.00000000E+00  0.00000000E+00  0.00000000E+00
  0.00000000E+00  0.00000000E+00  0.00000000E+00
  0.00000000E+00  0.00000000E+00  0.00000000E+00
  0.00000000E+00  0.00000000E+00  0.00000000E+00
  0.00000000E+00  0.00000000E+00  0.00000000E+00
  0.00000000E+00  0.00000000E+00  0.00000000E+00
  0.00000000E+00  0.00000000E+00  0.00000000E+00
  0.00000000E+00  0.00000000E+00  0.00000000E+00
  0.00000000E+00  0.00000000E+00  0.00000000E+00
  0.00000000E+00  0.00000000E+00  0.00000000E+00
