Graphene-Borophene Hollow 1 with lattice
   1.00000000000000     
     4.3136725362502881    2.4904999999999999    0.0000000000000000
    -4.3136725362502881    2.4904999999999999    0.0000000000000000
     0.0000000000000000    0.0000000000000000   15.0000000000000000
   B    C 
     8     8
Direct
  0.6720095659078080 -0.0026831912969667  0.1671330625127878
  0.3331812147200392 -0.0026147720149280  0.1668354169199275
  0.0026831912969667  0.3279894340921953  0.1671330625127878
  0.0026147720149280  0.6668177852799630  0.1668354169199275
  0.3330203525609636  0.3278617287477927  0.1668782564456940
  0.6721372712522103  0.6669786474390388  0.1668782564456940
  0.6690544089637857  0.3309445910362172  0.1607706094315257
  0.3358415659177761  0.6641574340822264  0.1740445636676387
  0.2751727117051327  0.2247597099193467  0.4025019225508469
  0.4418789096329418  0.0581490716859606  0.4025696871253020
  0.2752119640070043  0.7247870359929981  0.4025769799901024
  0.4418970632701733  0.5581019367298292  0.4026133070779723
  0.7752182678644978  0.2247807321355044  0.4025351182635959
  0.9418714113800071  0.0581275886199953  0.4024227304600590
  0.7752392900806561  0.7248262882948698  0.4025019225508469
  0.9418499283140422  0.5581200903670607  0.4025696871253020
 
  0.00000000E+00  0.00000000E+00  0.00000000E+00
  0.00000000E+00  0.00000000E+00  0.00000000E+00
  0.00000000E+00  0.00000000E+00  0.00000000E+00
  0.00000000E+00  0.00000000E+00  0.00000000E+00
  0.00000000E+00  0.00000000E+00  0.00000000E+00
  0.00000000E+00  0.00000000E+00  0.00000000E+00
  0.00000000E+00  0.00000000E+00  0.00000000E+00
  0.00000000E+00  0.00000000E+00  0.00000000E+00
  0.00000000E+00  0.00000000E+00  0.00000000E+00
  0.00000000E+00  0.00000000E+00  0.00000000E+00
  0.00000000E+00  0.00000000E+00  0.00000000E+00
  0.00000000E+00  0.00000000E+00  0.00000000E+00
  0.00000000E+00  0.00000000E+00  0.00000000E+00
  0.00000000E+00  0.00000000E+00  0.00000000E+00
  0.00000000E+00  0.00000000E+00  0.00000000E+00
  0.00000000E+00  0.00000000E+00  0.00000000E+00
