Graphene-Borophene Hollow 1 with lattice
   1.00000000000000     
     4.3050122822124441    2.4855000000000000    0.0000000000000000
    -4.3050122822124441    2.4855000000000000    0.0000000000000000
     0.0000000000000000    0.0000000000000000   15.0000000000000000
   B    C 
     8     8
Direct
  0.6764738133773130 -0.0079644467569714  0.1678153440173108
  0.3394063281961457 -0.0079021635161344  0.1679599517928945
  0.0079644467569714  0.3235251866226895  0.1678153440173108
  0.0079021635161344  0.6605926718038567  0.1679599517928945
  0.3389992731701163  0.3233553888740518  0.1670671997415934
  0.6766436111259511  0.6609997268298864  0.1670671997415934
  0.6741850935846686  0.3258139064153333  0.1544098050694113
  0.3410030848661512  0.6589959151338517  0.1810153667527881
  0.2698744863015049  0.2299360296188185  0.4019031998483742
  0.4366225029519203  0.0633932163197083  0.4019628155831938
  0.2700174101745391  0.7299815898254637  0.4018797441352501
  0.4366525513501514  0.5633464486498506  0.4019412584415680
  0.7699305793919751  0.2300684206080272  0.4020271169764204
  0.9365377900639101  0.0634612099360924  0.4021096866578392
  0.7700629703811844  0.7301245136984981  0.4019031998483742
  0.9366057836802941  0.5633764970480826  0.4019628155831939
 
  0.00000000E+00  0.00000000E+00  0.00000000E+00
  0.00000000E+00  0.00000000E+00  0.00000000E+00
  0.00000000E+00  0.00000000E+00  0.00000000E+00
  0.00000000E+00  0.00000000E+00  0.00000000E+00
  0.00000000E+00  0.00000000E+00  0.00000000E+00
  0.00000000E+00  0.00000000E+00  0.00000000E+00
  0.00000000E+00  0.00000000E+00  0.00000000E+00
  0.00000000E+00  0.00000000E+00  0.00000000E+00
  0.00000000E+00  0.00000000E+00  0.00000000E+00
  0.00000000E+00  0.00000000E+00  0.00000000E+00
  0.00000000E+00  0.00000000E+00  0.00000000E+00
  0.00000000E+00  0.00000000E+00  0.00000000E+00
  0.00000000E+00  0.00000000E+00  0.00000000E+00
  0.00000000E+00  0.00000000E+00  0.00000000E+00
  0.00000000E+00  0.00000000E+00  0.00000000E+00
  0.00000000E+00  0.00000000E+00  0.00000000E+00
