BC3 with lattice parameter 5.169        
   1.00000000000000     
     4.4764850000000003    2.5844999999999998    0.0000000000000000
    -4.4764850000000003    2.5844999999999998    0.0000000000000000
     0.0000000000000000    0.0000000000000000   15.0000000000000000
  B               C             
     2     6
Direct
  0.3383341886003635  0.6691650894765573  0.2500000000000000
  0.6716663153566671  0.3358318964702747  0.2500000000000000
  0.1637459181908554  0.3199995214018969  0.2500000000000000
  0.3224994810579034  0.1612502658378006  0.2500000000000000
  0.1637542863956938  0.8437491756871367  0.2500000000000000
  0.8462441804439820  0.1612505843574539  0.2500000000000000
  0.6875000162823710  0.8437501109410022  0.2500000000000000
  0.8462516136721661  0.6849993558278769  0.2500000000000000
 
  0.00000000E+00  0.00000000E+00  0.00000000E+00
  0.00000000E+00  0.00000000E+00  0.00000000E+00
  0.00000000E+00  0.00000000E+00  0.00000000E+00
  0.00000000E+00  0.00000000E+00  0.00000000E+00
  0.00000000E+00  0.00000000E+00  0.00000000E+00
  0.00000000E+00  0.00000000E+00  0.00000000E+00
  0.00000000E+00  0.00000000E+00  0.00000000E+00
  0.00000000E+00  0.00000000E+00  0.00000000E+00
