Graphene-Borophene Bridge with lattice p
   1.00000000000000     
     4.3257968919032708    2.4975000000000001    0.0000000000000000
    -4.3257968919032708    2.4975000000000001    0.0000000000000000
     0.0000000000000000    0.0000000000000000   15.0000000000000000
   B    C 
     8     8
Direct
  0.6794224610647470 -0.0104416222244105  0.1665724542462239
  0.3411659249502676 -0.0104161524260411  0.1656843795058101
  0.0104416222244105  0.3205765389352548  0.1665724542462239
  0.0104161524260411  0.6588330750497348  0.1656843795058101
  0.3410833962238052  0.3202256036562978  0.1658126675487156
  0.6797733963437048  0.6589156037761967  0.1658126675487156
  0.6767029550756377  0.3232960449243656  0.1595736700484340
  0.3435778746993069  0.6564211253006959  0.1750184025094146
  0.2397803078807408  0.2603938311632238  0.4026785525951411
  0.4062832745274135  0.0937217618702566  0.4027498792121739
  0.2396599392479269  0.7603390607520757  0.4028077971881331
  0.4064292728970246  0.5935697271029780  0.4028223240182355
  0.7398101150056726  0.2601888849943295  0.4026963819366349
  0.9062305671334787  0.0937684328665234  0.4026188914163903
  0.7396051688367787  0.7602186921192615  0.4026785525951411
  0.9062772381297459  0.5937157254725896  0.4027498792121739
 
  0.00000000E+00  0.00000000E+00  0.00000000E+00
  0.00000000E+00  0.00000000E+00  0.00000000E+00
  0.00000000E+00  0.00000000E+00  0.00000000E+00
  0.00000000E+00  0.00000000E+00  0.00000000E+00
  0.00000000E+00  0.00000000E+00  0.00000000E+00
  0.00000000E+00  0.00000000E+00  0.00000000E+00
  0.00000000E+00  0.00000000E+00  0.00000000E+00
  0.00000000E+00  0.00000000E+00  0.00000000E+00
  0.00000000E+00  0.00000000E+00  0.00000000E+00
  0.00000000E+00  0.00000000E+00  0.00000000E+00
  0.00000000E+00  0.00000000E+00  0.00000000E+00
  0.00000000E+00  0.00000000E+00  0.00000000E+00
  0.00000000E+00  0.00000000E+00  0.00000000E+00
  0.00000000E+00  0.00000000E+00  0.00000000E+00
  0.00000000E+00  0.00000000E+00  0.00000000E+00
  0.00000000E+00  0.00000000E+00  0.00000000E+00
