Graphene-B4C3 Hollow 2 with lattice para
   1.00000000000000     
     4.2045533353734497    2.4275000000000002    0.0000000000000000
    -4.2045533353734497    2.4275000000000002    0.0000000000000000
     0.0000000000000000    0.0000000000000000   15.0000000000000000
   B    C 
     4    11
Direct
  0.0043942633569145  0.0029210904563380  0.0997198215183250
  0.3595464479409388  0.0029245939536898  0.1009487434999833
  0.0043995274733168  0.3580722682027431  0.1009508255159704
  0.6492525798439460  0.6477777647764145  0.1009535539605494
  0.3279923622643234  0.3265120307128968  0.1007471813080863
  0.6808247976495408  0.0029373125256058  0.1007428936005891
  0.0044156114189177  0.6793491987363769  0.1007424114144062
  0.1664551764238049  0.3331987637405143  0.3383309282917967
  0.3331396794626397  0.1665129354285842  0.3383324717110666
  0.1664959018708994  0.8332221778998761  0.3383348119763795
  0.3331404419137374  0.6665347425661491  0.3382240287513719
  0.6664749762124088  0.3331992319597006  0.3382242341536780
  0.8331621275621786  0.1665541987420548  0.3383340294001834
  0.6664764915007565  0.8331822175516005  0.3383306986529245
  0.8331236151056852  0.6665354727474671  0.3383293662447163
 
  0.00000000E+00  0.00000000E+00  0.00000000E+00
  0.00000000E+00  0.00000000E+00  0.00000000E+00
  0.00000000E+00  0.00000000E+00  0.00000000E+00
  0.00000000E+00  0.00000000E+00  0.00000000E+00
  0.00000000E+00  0.00000000E+00  0.00000000E+00
  0.00000000E+00  0.00000000E+00  0.00000000E+00
  0.00000000E+00  0.00000000E+00  0.00000000E+00
  0.00000000E+00  0.00000000E+00  0.00000000E+00
  0.00000000E+00  0.00000000E+00  0.00000000E+00
  0.00000000E+00  0.00000000E+00  0.00000000E+00
  0.00000000E+00  0.00000000E+00  0.00000000E+00
  0.00000000E+00  0.00000000E+00  0.00000000E+00
  0.00000000E+00  0.00000000E+00  0.00000000E+00
  0.00000000E+00  0.00000000E+00  0.00000000E+00
  0.00000000E+00  0.00000000E+00  0.00000000E+00
