Graphene-B4C3 Hollow_2 with lattice para
   1.00000000000000     
     4.1967591067393899    2.4230000000000000    0.0000000000000000
    -4.1967591067393899    2.4230000000000000    0.0000000000000000
     0.0000000000000000    0.0000000000000000   15.0000000000000000
    C
    8
Direct
  0.1664158658288583  0.3331741754214692  0.3376427689833656
  0.3331003512121167  0.1664894414872624  0.3376445069906334
  0.1664519651539525  0.8331936767728882  0.3376471070496600
  0.3331008836337012  0.6665075904275531  0.3375375505363784
  0.6664319707416609  0.3331728377518005  0.3375375526398458
  0.8331195478014103  0.1665257313868883  0.3376464752290860
  0.6664327749792953  0.8331579743710532  0.3376432931933773
  0.8330848025889305  0.6665085835584240  0.3376420319107445
