Graphene-BC3 Hollow with lattice paramet
   1.00000000000000     
     4.3682321366887082    2.5219999999999998    0.0000000000000000
    -4.3682321366887082    2.5219999999999998    0.0000000000000000
     0.0000000000000000    0.0000000000000000   15.0000000000000000
   B    C 
     2    14
Direct
  0.3381758346491155  0.6690878962740533  0.1136750647673103
  0.6715123926972805  0.3357554514792460  0.1133466861573847
  0.1644167919355548  0.3215649895465090  0.1133025225055723
  0.3239090083112546  0.1619504757224906  0.1133142820831141
  0.1644187976875647  0.8428500885338819  0.1133017602940032
  0.8453117790466123  0.1619523523645036  0.1133044718413407
  0.6856960429425591  0.8428442466611622  0.1132926983835433
  0.8453105559089021  0.6833563840499558  0.1133037354591478
  0.3335083989565276  0.1667547606180032  0.3379041112336512
  0.5002019182214628  0.0001773956693547  0.3378723890916925
  0.3334857057806289  0.6667435113629168  0.3375573398174913
  0.5002019393930656  0.5000281412034390  0.3378724260512225
  0.8334795965669994  0.1667559650940618  0.3378990103728400
  0.0001573756986727  0.0000804385671519  0.3378816666254376
  0.8334797084476948  0.6667249995208667  0.3378989701780675
  0.0000594870894387  0.5000315699990990  0.3378728651381814
 
  0.00000000E+00  0.00000000E+00  0.00000000E+00
  0.00000000E+00  0.00000000E+00  0.00000000E+00
  0.00000000E+00  0.00000000E+00  0.00000000E+00
  0.00000000E+00  0.00000000E+00  0.00000000E+00
  0.00000000E+00  0.00000000E+00  0.00000000E+00
  0.00000000E+00  0.00000000E+00  0.00000000E+00
  0.00000000E+00  0.00000000E+00  0.00000000E+00
  0.00000000E+00  0.00000000E+00  0.00000000E+00
  0.00000000E+00  0.00000000E+00  0.00000000E+00
  0.00000000E+00  0.00000000E+00  0.00000000E+00
  0.00000000E+00  0.00000000E+00  0.00000000E+00
  0.00000000E+00  0.00000000E+00  0.00000000E+00
  0.00000000E+00  0.00000000E+00  0.00000000E+00
  0.00000000E+00  0.00000000E+00  0.00000000E+00
  0.00000000E+00  0.00000000E+00  0.00000000E+00
  0.00000000E+00  0.00000000E+00  0.00000000E+00
