Graphene-BC3 Top with lattice parameter 
   1.00000000000000     
     4.3682321366887074    2.5219999999999994    0.0000000000000000
    -4.3682321366887074    2.5219999999999994    0.0000000000000000
     0.0000000000000000    0.0000000000000000   15.0000000000000000
   B    C 
     2    14
Direct
  0.3383345750981623  0.6691672711343648  0.1002342218280587
  0.6716676024679314  0.3358336438573281  0.1002342071899760
  0.1646252925005995  0.3217445793830110  0.0999101220787660
  0.3242479791756960  0.1621241409047363  0.0999091652434657
  0.1646264435618565  0.8428813367138973  0.0999101189620802
  0.8453840351853958  0.1621214783144180  0.0999116142169383
  0.6857654808195232  0.8428817635351056  0.0999121906078034
  0.8453853976986460  0.6832618170558875  0.0999116089757845
  0.1665649306395034  0.3331370224250125  0.3288836987439807
  0.3331344299419586  0.1665670128289726  0.3288848143743186
  0.1665649322000209  0.8334275019732392  0.3288836984161674
  0.3333265778127851  0.6666630889969154  0.3285859690165467
  0.6666599604105197  0.3333297767259956  0.3285859682964605
  0.8334249835833859  0.1665675868279797  0.3288812974089807
  0.6668543998872707  0.8334269969789141  0.3288800076702449
  0.8334249790167647  0.6668569823442304  0.3288812969704475
 
  0.00000000E+00  0.00000000E+00  0.00000000E+00
  0.00000000E+00  0.00000000E+00  0.00000000E+00
  0.00000000E+00  0.00000000E+00  0.00000000E+00
  0.00000000E+00  0.00000000E+00  0.00000000E+00
  0.00000000E+00  0.00000000E+00  0.00000000E+00
  0.00000000E+00  0.00000000E+00  0.00000000E+00
  0.00000000E+00  0.00000000E+00  0.00000000E+00
  0.00000000E+00  0.00000000E+00  0.00000000E+00
  0.00000000E+00  0.00000000E+00  0.00000000E+00
  0.00000000E+00  0.00000000E+00  0.00000000E+00
  0.00000000E+00  0.00000000E+00  0.00000000E+00
  0.00000000E+00  0.00000000E+00  0.00000000E+00
  0.00000000E+00  0.00000000E+00  0.00000000E+00
  0.00000000E+00  0.00000000E+00  0.00000000E+00
  0.00000000E+00  0.00000000E+00  0.00000000E+00
  0.00000000E+00  0.00000000E+00  0.00000000E+00
