Graphene-B4C3 Top with lattice parameter
   1.00000000000000     
     4.1927609032868602    2.4277814660616381    0.0470350188716681
    -4.1849838062995142    2.4143137611390579    0.0080778621749291
     0.0696825413408915    0.1717389877039222    3.1617917545521519
   B    C 
     4    11
Direct
 -0.0014015919706110  0.0012951893015901  0.0173086626017629
  0.3577306609069072 -0.0043233935119836  0.0295604919254501
  0.0000278758886882  0.3631599220129535  0.0295713325838445
  0.6358535938649170  0.6379021819841794  0.0294853064477305
  0.3140006983180053  0.3104766710389991  0.0314647639714431
  0.6843715734377048  0.0016473290492876  0.0273215542733530
 -0.0088140053894433  0.6806645868943333  0.0261752731191406
  0.0049515420673242  0.5042930958747636  0.4056562141526580
  0.1723118850397678  0.3326143780124786  0.4053487317159926
  0.0056601082248246  0.0035728941244470  0.4039655518507890
  0.1694772588340670  0.8380253696555189  0.4050582947240701
  0.5042389269003811  0.5019071918599051  0.4058359624202575
  0.6731537024037647  0.3370990511543971  0.4060999491807986
  0.5068905757692301  0.0039625866414414  0.4055686159976626
  0.6775078623711642  0.8404702792410149  0.4052252950350789
 
  0.00000000E+00  0.00000000E+00  0.00000000E+00
  0.00000000E+00  0.00000000E+00  0.00000000E+00
  0.00000000E+00  0.00000000E+00  0.00000000E+00
  0.00000000E+00  0.00000000E+00  0.00000000E+00
  0.00000000E+00  0.00000000E+00  0.00000000E+00
  0.00000000E+00  0.00000000E+00  0.00000000E+00
  0.00000000E+00  0.00000000E+00  0.00000000E+00
  0.00000000E+00  0.00000000E+00  0.00000000E+00
  0.00000000E+00  0.00000000E+00  0.00000000E+00
  0.00000000E+00  0.00000000E+00  0.00000000E+00
  0.00000000E+00  0.00000000E+00  0.00000000E+00
  0.00000000E+00  0.00000000E+00  0.00000000E+00
  0.00000000E+00  0.00000000E+00  0.00000000E+00
  0.00000000E+00  0.00000000E+00  0.00000000E+00
  0.00000000E+00  0.00000000E+00  0.00000000E+00
