Graphene-BC3 Hollow with lattice paramet
   1.00000000000000     
     4.3613039334584327    2.5179999999999998    0.0000000000000000
    -4.3613039334584327    2.5179999999999998    0.0000000000000000
     0.0000000000000000    0.0000000000000000   15.0000000000000000
   B    C 
     2    14
Direct
  0.3383109002877331  0.6691551789473433  0.1003536793618953
  0.6716454137192408  0.3358221815884671  0.1000356594086378
  0.1646503378209069  0.3218355399677151  0.1000478560849803
  0.3242498521454330  0.1621235320477723  0.1000533246414632
  0.1646503300342244  0.8428137216084988  0.1000478555715073
  0.8453398145674365  0.1621223657508301  0.1000462789180093
  0.6856227326882535  0.8428111289332827  0.1000408605313601
  0.8453401222234365  0.6832157333549828  0.1000462896739373
  0.3333741770589575  0.1666872368439342  0.3255006091944341
  0.5000625404944565  0.0000961253081429  0.3254790148347098
  0.3333542929812718  0.6666773005503384  0.3251917643461012
  0.5000625493436539  0.4999667863187274  0.3254790165545135
  0.8333489666209332  0.1666887071415148  0.3254958554818913
  0.0000246461048647  0.0000125100015459  0.3254730011348371
  0.8333489825449577  0.6666605895505991  0.3254958507633681
  0.9999396746975734  0.4999700287529997  0.3254797501650261
 
  0.00000000E+00  0.00000000E+00  0.00000000E+00
  0.00000000E+00  0.00000000E+00  0.00000000E+00
  0.00000000E+00  0.00000000E+00  0.00000000E+00
  0.00000000E+00  0.00000000E+00  0.00000000E+00
  0.00000000E+00  0.00000000E+00  0.00000000E+00
  0.00000000E+00  0.00000000E+00  0.00000000E+00
  0.00000000E+00  0.00000000E+00  0.00000000E+00
  0.00000000E+00  0.00000000E+00  0.00000000E+00
  0.00000000E+00  0.00000000E+00  0.00000000E+00
  0.00000000E+00  0.00000000E+00  0.00000000E+00
  0.00000000E+00  0.00000000E+00  0.00000000E+00
  0.00000000E+00  0.00000000E+00  0.00000000E+00
  0.00000000E+00  0.00000000E+00  0.00000000E+00
  0.00000000E+00  0.00000000E+00  0.00000000E+00
  0.00000000E+00  0.00000000E+00  0.00000000E+00
  0.00000000E+00  0.00000000E+00  0.00000000E+00
