Graphene-BC3 Hollow with lattice paramet
   1.00000000000000     
     4.3613039334584327    2.5179999999999998    0.0000000000000000
    -4.3613039334584327    2.5179999999999998    0.0000000000000000
     0.0000000000000000    0.0000000000000000   15.0000000000000000
   B    C 
     2    14
Direct
  0.3382730135456594  0.6691340163951149  0.1004633660129881
  0.6716057476093593  0.3358006783311103  0.1001332387927168
  0.1646000027008520  0.3218067380834553  0.1001498732379891
  0.3242167269320123  0.1621064554076933  0.1001580761607175
  0.1646008275780335  0.8427927727990890  0.1001500638212624
  0.8453013786417641  0.1621071815688686  0.1001459993658513
  0.6855880583787390  0.8427930813303902  0.1001381476132505
  0.8452999225525213  0.6831918706257913  0.1001462986306644
  0.3334196095128709  0.1667108817218024  0.3254021817516909
  0.5001054111918446  0.0001182425212485  0.3253694770452566
  0.3333923224543106  0.6666972305149684  0.3251009751438244
  0.5001053198988517  0.4999879979257422  0.3253694816147367
  0.8333839949557365  0.1667127994280320  0.3253975882506391
  0.0000672632332213  0.0000340917258954  0.3253743007056658
  0.8333840143401531  0.6666734099586620  0.3253975962323179
  0.9999817198074041  0.4999912183288295  0.3253700022871009
 
  0.00000000E+00  0.00000000E+00  0.00000000E+00
  0.00000000E+00  0.00000000E+00  0.00000000E+00
  0.00000000E+00  0.00000000E+00  0.00000000E+00
  0.00000000E+00  0.00000000E+00  0.00000000E+00
  0.00000000E+00  0.00000000E+00  0.00000000E+00
  0.00000000E+00  0.00000000E+00  0.00000000E+00
  0.00000000E+00  0.00000000E+00  0.00000000E+00
  0.00000000E+00  0.00000000E+00  0.00000000E+00
  0.00000000E+00  0.00000000E+00  0.00000000E+00
  0.00000000E+00  0.00000000E+00  0.00000000E+00
  0.00000000E+00  0.00000000E+00  0.00000000E+00
  0.00000000E+00  0.00000000E+00  0.00000000E+00
  0.00000000E+00  0.00000000E+00  0.00000000E+00
  0.00000000E+00  0.00000000E+00  0.00000000E+00
  0.00000000E+00  0.00000000E+00  0.00000000E+00
  0.00000000E+00  0.00000000E+00  0.00000000E+00
