Graphene-B4C3 Bridge with lattice parame
   1.00000000000000     
     4.2149456402188630    2.4335000000000000    0.0000000000000000
    -4.2149456402188630    2.4335000000000000    0.0000000000000000
     0.0000000000000000    0.0000000000000000   15.0000000000000000
   B    C 
     4    11
Direct
  0.0298162129482665 -0.0215661158544149  0.1026291107855800
  0.3849239292091258 -0.0212038367470825  0.1010307979997671
  0.0295198206424897  0.3333368753737936  0.1010836677450658
  0.6749293198802689  0.6234592020140769  0.1010739845237061
  0.3533573085523395  0.3018665766544725  0.1011847821420480
  0.7065514075314006 -0.0212556492174871  0.1012118194745745
  0.0296562435139990  0.6549417071896210  0.1012106057571671
  0.0608894056041549  0.4378859386062581  0.3369508175236911
  0.2275531594439028  0.2712330121691595  0.3370798146148198
  0.0609097378288635  0.9379285037991799  0.3369764838245697
  0.2276197023965501  0.7712398785894281  0.3370218129818744
  0.5609231694246158  0.4379186854275980  0.3369877755932663
  0.7275776071596107  0.2712324693505600  0.3369118963935545
  0.5608679583060183  0.9378916507786622  0.3370088649822880
  0.7275323508917160  0.7711917685328713  0.3370170989913643
 
  0.00000000E+00  0.00000000E+00  0.00000000E+00
  0.00000000E+00  0.00000000E+00  0.00000000E+00
  0.00000000E+00  0.00000000E+00  0.00000000E+00
  0.00000000E+00  0.00000000E+00  0.00000000E+00
  0.00000000E+00  0.00000000E+00  0.00000000E+00
  0.00000000E+00  0.00000000E+00  0.00000000E+00
  0.00000000E+00  0.00000000E+00  0.00000000E+00
  0.00000000E+00  0.00000000E+00  0.00000000E+00
  0.00000000E+00  0.00000000E+00  0.00000000E+00
  0.00000000E+00  0.00000000E+00  0.00000000E+00
  0.00000000E+00  0.00000000E+00  0.00000000E+00
  0.00000000E+00  0.00000000E+00  0.00000000E+00
  0.00000000E+00  0.00000000E+00  0.00000000E+00
  0.00000000E+00  0.00000000E+00  0.00000000E+00
  0.00000000E+00  0.00000000E+00  0.00000000E+00
