Graphene-BC3 Hollow with lattice paramet
   1.00000000000000     
     4.3682321366887082    2.5219999999999998    0.0000000000000000
    -4.3682321366887082    2.5219999999999998    0.0000000000000000
     0.0000000000000000    0.0000000000000000   15.0000000000000000
   B    C 
     2    14
Direct
  0.3381726338238327  0.6690844709104012  0.1135240964424476
  0.6715092505618597  0.3357526385987789  0.1131902552058606
  0.1644504911708702  0.3216369780743794  0.1131682039007171
  0.3239809962674594  0.1619868749802676  0.1131783203286886
  0.1644509814565452  0.8428082448264607  0.1131668885127415
  0.8452668009408012  0.1619861434603307  0.1131679042142524
  0.6856163466634324  0.8428047320841402  0.1131573933633799
  0.8452675058259685  0.6832747584064024  0.1131665914695021
  0.3335115303787211  0.1667581178545855  0.3380413888728733
  0.5002030137964103  0.0001728618992034  0.3380125073451813
  0.3334903115556114  0.6667475293578338  0.3377097528290529
  0.5002030162642415  0.5000347283195904  0.3380125083711166
  0.8334845673639700  0.1667593213144368  0.3380364999581681
  0.0001618891803762  0.0000832582984746  0.3380182092260008
  0.8334846042079598  0.6667300246139998  0.3380364756414386
  0.0000713938752748  0.5000379836674100  0.3380130043185792
 
  0.00000000E+00  0.00000000E+00  0.00000000E+00
  0.00000000E+00  0.00000000E+00  0.00000000E+00
  0.00000000E+00  0.00000000E+00  0.00000000E+00
  0.00000000E+00  0.00000000E+00  0.00000000E+00
  0.00000000E+00  0.00000000E+00  0.00000000E+00
  0.00000000E+00  0.00000000E+00  0.00000000E+00
  0.00000000E+00  0.00000000E+00  0.00000000E+00
  0.00000000E+00  0.00000000E+00  0.00000000E+00
  0.00000000E+00  0.00000000E+00  0.00000000E+00
  0.00000000E+00  0.00000000E+00  0.00000000E+00
  0.00000000E+00  0.00000000E+00  0.00000000E+00
  0.00000000E+00  0.00000000E+00  0.00000000E+00
  0.00000000E+00  0.00000000E+00  0.00000000E+00
  0.00000000E+00  0.00000000E+00  0.00000000E+00
  0.00000000E+00  0.00000000E+00  0.00000000E+00
  0.00000000E+00  0.00000000E+00  0.00000000E+00
