Graphene-BC3 Hollow with lattice paramet
   1.00000000000000     
     4.3595718826508634    2.5169999999999999    0.0000000000000000
    -4.3595718826508634    2.5169999999999999    0.0000000000000000
     0.0000000000000000    0.0000000000000000   15.0000000000000000
   B    C 
     2    14
Direct
  0.3382674802299468  0.6691322591338538  0.1004539564523685
  0.6716042288038748  0.3358004418497435  0.1001400935412396
  0.1646203444046004  0.3218379182605506  0.1001524864308772
  0.3242319615366597  0.1621150108991992  0.1001619191215198
  0.1646203371600531  0.8427801613254263  0.1001528330973540
  0.8452815050522110  0.1621125731779258  0.1001489300065660
  0.6855581932929241  0.8427774115130402  0.1001400636264766
  0.8452823044923868  0.6831673479399472  0.1001492612692251
  0.3334180323790900  0.1667094303059624  0.3253971620692196
  0.5001026224900691  0.0001151540357500  0.3253732781045600
  0.3333989314537086  0.6666998837174539  0.3250916682693158
  0.5001026270102872  0.4999896550251088  0.3253732825630891
  0.8333939180060665  0.1667108209247129  0.3253924267036086
  0.0000657217621373  0.0000339529202463  0.3253729886969280
  0.8333939265553958  0.6666839470531345  0.3253924376224471
  0.9999831987039225  0.4999926985846377  0.3253738790918772
 
  0.00000000E+00  0.00000000E+00  0.00000000E+00
  0.00000000E+00  0.00000000E+00  0.00000000E+00
  0.00000000E+00  0.00000000E+00  0.00000000E+00
  0.00000000E+00  0.00000000E+00  0.00000000E+00
  0.00000000E+00  0.00000000E+00  0.00000000E+00
  0.00000000E+00  0.00000000E+00  0.00000000E+00
  0.00000000E+00  0.00000000E+00  0.00000000E+00
  0.00000000E+00  0.00000000E+00  0.00000000E+00
  0.00000000E+00  0.00000000E+00  0.00000000E+00
  0.00000000E+00  0.00000000E+00  0.00000000E+00
  0.00000000E+00  0.00000000E+00  0.00000000E+00
  0.00000000E+00  0.00000000E+00  0.00000000E+00
  0.00000000E+00  0.00000000E+00  0.00000000E+00
  0.00000000E+00  0.00000000E+00  0.00000000E+00
  0.00000000E+00  0.00000000E+00  0.00000000E+00
  0.00000000E+00  0.00000000E+00  0.00000000E+00
