Graphene-BC3 Bridge with lattice paramet
   1.00000000000000     
     4.3950789242060262    2.5375000000000001    0.0000000000000000
    -4.3950789242060262    2.5375000000000001    0.0000000000000000
     0.0000000000000000    0.0000000000000000   15.0000000000000000
   B    C 
     2    14
Direct
  0.3229984732355951  0.6856951081040026  0.1011169492450452
  0.6562627126429861  0.3524194063315078  0.1008103999143630
  0.1490118566711531  0.3379443665944102  0.1007972494716928
  0.3083256679735759  0.1784449588587005  0.1007130038150977
  0.1490046079452555  0.8596888373339192  0.1006966808821731
  0.8301613063960559  0.1785416541533990  0.1008210151973788
  0.6707450459460977  0.8596730016816277  0.1007927618654982
  0.8302336337080194  0.7003637203697950  0.1007059697618979
  0.2653672989055628  0.2333019134644496  0.3255935086759547
  0.4319845903222723  0.0667534131891524  0.3255969556460051
  0.2653749205271125  0.7334346826501157  0.3253839997772699
  0.4321396669901454  0.5666733891850870  0.3254701016117508
  0.7653759782391673  0.2334252329619836  0.3254611301369084
  0.9321072784780408  0.0667022926703367  0.3255196574720808
  0.7655122342130702  0.7334451967603617  0.3255957588953860
  0.9320533944725961  0.5668181590244746  0.3255915242981547
 
  0.00000000E+00  0.00000000E+00  0.00000000E+00
  0.00000000E+00  0.00000000E+00  0.00000000E+00
  0.00000000E+00  0.00000000E+00  0.00000000E+00
  0.00000000E+00  0.00000000E+00  0.00000000E+00
  0.00000000E+00  0.00000000E+00  0.00000000E+00
  0.00000000E+00  0.00000000E+00  0.00000000E+00
  0.00000000E+00  0.00000000E+00  0.00000000E+00
  0.00000000E+00  0.00000000E+00  0.00000000E+00
  0.00000000E+00  0.00000000E+00  0.00000000E+00
  0.00000000E+00  0.00000000E+00  0.00000000E+00
  0.00000000E+00  0.00000000E+00  0.00000000E+00
  0.00000000E+00  0.00000000E+00  0.00000000E+00
  0.00000000E+00  0.00000000E+00  0.00000000E+00
  0.00000000E+00  0.00000000E+00  0.00000000E+00
  0.00000000E+00  0.00000000E+00  0.00000000E+00
  0.00000000E+00  0.00000000E+00  0.00000000E+00
