Graphene-Borophene Hollow 1 with lattice
   1.00000000000000     
     4.3734282891114127    2.5249999999999986    0.0000000000000000
    -4.3734282891114127    2.5249999999999986    0.0000000000000000
     0.0000000000000000    0.0000000000000000   15.0000000000000000
   B    C 
     8     8
Direct
  0.6704236922474960 -0.0017564281054777  0.1663102093749985
  0.3329043353348792 -0.0016211284687871  0.1665125501799444
  0.0017564281054777  0.3295753077525062  0.1663102093749985
  0.0016211284687871  0.6670946646651227  0.1665125501799444
  0.3327794700777770  0.3295074523307510  0.1665230900769324
  0.6704915476692519  0.6672195299222252  0.1665230900769324
  0.6681201601276661  0.3318788398723367  0.1656796762214551
  0.3348405199276587  0.6651584800723428  0.1676089882666867
  0.2761400215042068  0.2237794651871410  0.4031210450526007
  0.4427759300371475  0.0572012434562497  0.4031227285186669
  0.2761674236321549  0.7238315763678478  0.4029965461032264
  0.4428395581193398  0.5571594418806624  0.4031386684077924
  0.7761741442931964  0.2238248557068062  0.4030880325828511
  0.9428302379872787  0.0571687620127241  0.4031088420117125
  0.7762195348128621  0.7238589784957951  0.4031210450526007
  0.9427977565437535  0.5572230699628550  0.4031227285186669
 
  0.00000000E+00  0.00000000E+00  0.00000000E+00
  0.00000000E+00  0.00000000E+00  0.00000000E+00
  0.00000000E+00  0.00000000E+00  0.00000000E+00
  0.00000000E+00  0.00000000E+00  0.00000000E+00
  0.00000000E+00  0.00000000E+00  0.00000000E+00
  0.00000000E+00  0.00000000E+00  0.00000000E+00
  0.00000000E+00  0.00000000E+00  0.00000000E+00
  0.00000000E+00  0.00000000E+00  0.00000000E+00
  0.00000000E+00  0.00000000E+00  0.00000000E+00
  0.00000000E+00  0.00000000E+00  0.00000000E+00
  0.00000000E+00  0.00000000E+00  0.00000000E+00
  0.00000000E+00  0.00000000E+00  0.00000000E+00
  0.00000000E+00  0.00000000E+00  0.00000000E+00
  0.00000000E+00  0.00000000E+00  0.00000000E+00
  0.00000000E+00  0.00000000E+00  0.00000000E+00
  0.00000000E+00  0.00000000E+00  0.00000000E+00
