Graphene-Borophene Hollow 1 with lattice
   1.00000000000000     
     4.3162706124616408    2.4919999999999995    0.0000000000000000
    -4.3162706124616408    2.4919999999999995    0.0000000000000000
     0.0000000000000000    0.0000000000000000   15.0000000000000000
   B    C 
     8     8
Direct
  0.6745342995486183 -0.0054809610978130  0.1671412682280661
  0.3356430914219894 -0.0052512767639089  0.1665920543794253
  0.0054809610978130  0.3254647004513844  0.1671412682280661
  0.0052512767639089  0.6643559085780127  0.1665920543794253
  0.3358484768243398  0.3253484895853221  0.1667835749343413
  0.6746505104146808  0.6641505231756625  0.1667835749343413
  0.6719194636732186  0.3280795363267838  0.1614299240550693
  0.3384369038968559  0.6615620961031468  0.1731582976007795
  0.2725558348794720  0.2274416208844485  0.4026170624583827
  0.4392127699803908  0.0608084014819474  0.4026943739167506
  0.2725362757638010  0.7274627242362013  0.4025935208834961
  0.4392994185798152  0.5606995814201871  0.4027298190151178
  0.7725651135782381  0.2274338864217641  0.4026318434194693
  0.9391995148321797  0.0607994851678229  0.4025999271921450
  0.7725573791155537  0.7274431651205300  0.4026170624583827
  0.9391905985180554  0.5607862300196114  0.4026943739167506
 
  0.00000000E+00  0.00000000E+00  0.00000000E+00
  0.00000000E+00  0.00000000E+00  0.00000000E+00
  0.00000000E+00  0.00000000E+00  0.00000000E+00
  0.00000000E+00  0.00000000E+00  0.00000000E+00
  0.00000000E+00  0.00000000E+00  0.00000000E+00
  0.00000000E+00  0.00000000E+00  0.00000000E+00
  0.00000000E+00  0.00000000E+00  0.00000000E+00
  0.00000000E+00  0.00000000E+00  0.00000000E+00
  0.00000000E+00  0.00000000E+00  0.00000000E+00
  0.00000000E+00  0.00000000E+00  0.00000000E+00
  0.00000000E+00  0.00000000E+00  0.00000000E+00
  0.00000000E+00  0.00000000E+00  0.00000000E+00
  0.00000000E+00  0.00000000E+00  0.00000000E+00
  0.00000000E+00  0.00000000E+00  0.00000000E+00
  0.00000000E+00  0.00000000E+00  0.00000000E+00
  0.00000000E+00  0.00000000E+00  0.00000000E+00
