Graphene-BC3 Hollow with lattice paramet
   1.00000000000000     
     4.3682321366887082    2.5219999999999998    0.0000000000000000
    -4.3682321366887082    2.5219999999999998    0.0000000000000000
     0.0000000000000000    0.0000000000000000   15.0000000000000000
    B     C 
    2     6
Direct
  0.3382033336900293  0.6690986609156181  0.1133816215800019
  0.6715386226905474  0.3357667701529113  0.1130661043872163
  0.1644921616974139  0.3216761204365318  0.1130738720550439
  0.3240386687334723  0.1620159180661269  0.1130801238129402
  0.1644921458159050  0.8428096242195510  0.1130742018371098
  0.8452826925809040  0.1620145316692637  0.1130704584661269
  0.6856203975222934  0.8428069161325499  0.1130655053163919
  0.8452832557159573  0.6832619538625128  0.1130708680307949
