Graphene-B4C3 Bridge with lattice parame
   1.00000000000000     
     4.1855007764901915    2.4165000000000001    0.0000000000000000
    -4.1855007764901915    2.4165000000000001    0.0000000000000000
     0.0000000000000000    0.0000000000000000   15.0000000000000000
   B    C 
     4    11
Direct
  0.0186878954074613 -0.0111030054576437  0.0978677635056073
  0.3737563686459753 -0.0111791833276058  0.1015807416896514
  0.0185016156656199  0.3437362049178385  0.1018048160933557
  0.6639341341966246  0.6337710991539593  0.1017320402269151
  0.3427403668012196  0.3125026282085967  0.1013416172503981
  0.6951064979595505 -0.0109844484727628  0.1011911480678678
  0.0190420365131412  0.6651876245631262  0.1013556699796516
  0.0705897574591766  0.4288999585712117  0.3372813166583851
  0.2371665973860598  0.2620388139230784  0.3373785304983065
  0.0705207421349885  0.9289479758837549  0.3373093072891959
  0.2372020604251567  0.7622344728721667  0.3373176328369974
  0.5704771933129800  0.4289524481654458  0.3373217940078662
  0.7371859878833282  0.2621678060510343  0.3372493451637213
  0.5704653940709657  0.9287799779647673  0.3373559528120534
  0.7372506854710741  0.7621482936497276  0.3372916572533632
 
  0.00000000E+00  0.00000000E+00  0.00000000E+00
  0.00000000E+00  0.00000000E+00  0.00000000E+00
  0.00000000E+00  0.00000000E+00  0.00000000E+00
  0.00000000E+00  0.00000000E+00  0.00000000E+00
  0.00000000E+00  0.00000000E+00  0.00000000E+00
  0.00000000E+00  0.00000000E+00  0.00000000E+00
  0.00000000E+00  0.00000000E+00  0.00000000E+00
  0.00000000E+00  0.00000000E+00  0.00000000E+00
  0.00000000E+00  0.00000000E+00  0.00000000E+00
  0.00000000E+00  0.00000000E+00  0.00000000E+00
  0.00000000E+00  0.00000000E+00  0.00000000E+00
  0.00000000E+00  0.00000000E+00  0.00000000E+00
  0.00000000E+00  0.00000000E+00  0.00000000E+00
  0.00000000E+00  0.00000000E+00  0.00000000E+00
  0.00000000E+00  0.00000000E+00  0.00000000E+00
