Graphene-BC3 Hollow with lattice paramet
   1.00000000000000     
     4.3431173999789596    2.5074999999999998    0.0000000000000000
    -4.3431173999789596    2.5074999999999998    0.0000000000000000
     0.0000000000000000    0.0000000000000000   15.0000000000000000
   B    C 
     2    14
Direct
  0.3382623742085149  0.6691305701170147  0.1005743995823894
  0.6715987113333092  0.3357978315974370  0.1002552622911041
  0.1647342083486683  0.3220739890643893  0.1002704550686114
  0.3244670543478706  0.1622323974368914  0.1002825101725628
  0.1647347686132355  0.8426583416562597  0.1002709616747255
  0.8451582626957066  0.1622303710094614  0.1002589074315359
  0.6853130866995654  0.8426552442595572  0.1002477394248867
  0.8451581476608270  0.6829250624810304  0.1002594279178406
  0.3334203520922348  0.1667107537173370  0.3252818287957909
  0.5001075365360147  0.0001151285934933  0.3252582717860111
  0.3334027246837752  0.6667019556161624  0.3249778866395077
  0.5001075409953396  0.4999939898568003  0.3252582740310430
  0.8333982425435014  0.1667119801028406  0.3252770276717514
  0.0000718358791092  0.0000367005897923  0.3252578846052276
  0.8333982545621416  0.6666874425942689  0.3252770367262908
 -0.0000077678664808  0.4999969079739578  0.3252587928473932
 
  0.00000000E+00  0.00000000E+00  0.00000000E+00
  0.00000000E+00  0.00000000E+00  0.00000000E+00
  0.00000000E+00  0.00000000E+00  0.00000000E+00
  0.00000000E+00  0.00000000E+00  0.00000000E+00
  0.00000000E+00  0.00000000E+00  0.00000000E+00
  0.00000000E+00  0.00000000E+00  0.00000000E+00
  0.00000000E+00  0.00000000E+00  0.00000000E+00
  0.00000000E+00  0.00000000E+00  0.00000000E+00
  0.00000000E+00  0.00000000E+00  0.00000000E+00
  0.00000000E+00  0.00000000E+00  0.00000000E+00
  0.00000000E+00  0.00000000E+00  0.00000000E+00
  0.00000000E+00  0.00000000E+00  0.00000000E+00
  0.00000000E+00  0.00000000E+00  0.00000000E+00
  0.00000000E+00  0.00000000E+00  0.00000000E+00
  0.00000000E+00  0.00000000E+00  0.00000000E+00
  0.00000000E+00  0.00000000E+00  0.00000000E+00
