Graphene-Borophene Hollow 2 with lattice
   1.00000000000000     
     4.3431173999789596    2.5074999999999998    0.0000000000000000
    -4.3431173999789596    2.5074999999999998    0.0000000000000000
     0.0000000000000000    0.0000000000000000   15.0000000000000000
   B    C 
     8     8
Direct
  0.6692456042418414 -0.0000419646680567  0.1666512886149914
  0.3307114310901046 -0.0000419646680567  0.1666512886149914
  0.0000419646680567  0.3307533957581615  0.1666512886149914
  0.0000419646680567  0.6692875689098982  0.1666512886149914
  0.3307114310901045  0.3307533957581615  0.1666512886149914
  0.6692456042418414  0.6692875689098982  0.1666512886149914
  0.6666659999999993  0.3333330000000032  0.1647496163271940
  0.3333330000000032  0.6666659999999993  0.1689539665475477
  0.3333544320097085  0.1666772160048614  0.4038893141646604
  0.5000190751898601  0.0000381503797208  0.4039505712965649
  0.3333326666666636  0.6666663333333389  0.4038861263165177
  0.5000190751898601  0.4999799248101420  0.4039505712965649
  0.8333217839951410  0.1666772160048614  0.4038893141646604
  0.9999996666666675  0.9999993333333350  0.4037829027351072
  0.8333217839951410  0.6666445679902938  0.4038893141646604
 -0.0000391503797183  0.4999799248101420  0.4039505712965649
 
  0.00000000E+00  0.00000000E+00  0.00000000E+00
  0.00000000E+00  0.00000000E+00  0.00000000E+00
  0.00000000E+00  0.00000000E+00  0.00000000E+00
  0.00000000E+00  0.00000000E+00  0.00000000E+00
  0.00000000E+00  0.00000000E+00  0.00000000E+00
  0.00000000E+00  0.00000000E+00  0.00000000E+00
  0.00000000E+00  0.00000000E+00  0.00000000E+00
  0.00000000E+00  0.00000000E+00  0.00000000E+00
  0.00000000E+00  0.00000000E+00  0.00000000E+00
  0.00000000E+00  0.00000000E+00  0.00000000E+00
  0.00000000E+00  0.00000000E+00  0.00000000E+00
  0.00000000E+00  0.00000000E+00  0.00000000E+00
  0.00000000E+00  0.00000000E+00  0.00000000E+00
  0.00000000E+00  0.00000000E+00  0.00000000E+00
  0.00000000E+00  0.00000000E+00  0.00000000E+00
  0.00000000E+00  0.00000000E+00  0.00000000E+00
