Graphene-BC3 Bridge with lattice paramet
   1.00000000000000     
     4.3994090512249464    2.5399999999999991    0.0000000000000000
    -4.3994090512249464    2.5399999999999991    0.0000000000000000
     0.0000000000000000    0.0000000000000000   15.0000000000000000
   B    C 
     2    14
Direct
  0.3310417608461376  0.6770767293546985  0.1003726188209957
  0.6642369592127311  0.3438428151458416  0.1002134672564098
  0.1568871909309892  0.3292879542385071  0.1000330289361434
  0.3162866494259282  0.1699004691904356  0.1002903424034287
  0.1569816837386362  0.8510696711569600  0.1004227779103421
  0.8381795547648858  0.1699270238961868  0.0999090763901054
  0.6788077908672785  0.8512223817063631  0.1000425706507946
  0.8382347179519719  0.6918182818862932  0.1003008830586379
  0.2574004138195773  0.2418841161696621  0.3262183199939321
  0.4240070933347400  0.0753636494942372  0.3261171797483250
  0.2573521729450138  0.7420541976798860  0.3259718483549572
  0.4240986744474617  0.5752903920116323  0.3261181658530151
  0.7574541209670206  0.2419476285500701  0.3261458552941111
  0.9241464002897487  0.0752458804654383  0.3261840269515850
  0.7575095912444245  0.7419994078932081  0.3262155844858453
  0.9240338918801594  0.5753947344939045  0.3261109205580286
 
  0.00000000E+00  0.00000000E+00  0.00000000E+00
  0.00000000E+00  0.00000000E+00  0.00000000E+00
  0.00000000E+00  0.00000000E+00  0.00000000E+00
  0.00000000E+00  0.00000000E+00  0.00000000E+00
  0.00000000E+00  0.00000000E+00  0.00000000E+00
  0.00000000E+00  0.00000000E+00  0.00000000E+00
  0.00000000E+00  0.00000000E+00  0.00000000E+00
  0.00000000E+00  0.00000000E+00  0.00000000E+00
  0.00000000E+00  0.00000000E+00  0.00000000E+00
  0.00000000E+00  0.00000000E+00  0.00000000E+00
  0.00000000E+00  0.00000000E+00  0.00000000E+00
  0.00000000E+00  0.00000000E+00  0.00000000E+00
  0.00000000E+00  0.00000000E+00  0.00000000E+00
  0.00000000E+00  0.00000000E+00  0.00000000E+00
  0.00000000E+00  0.00000000E+00  0.00000000E+00
  0.00000000E+00  0.00000000E+00  0.00000000E+00
