Graphene-Borophene Bridge with lattice p
   1.00000000000000     
     4.3058783076162293    2.4860000000000002    0.0000000000000000
    -4.3058783076162293    2.4860000000000002    0.0000000000000000
     0.0000000000000000    0.0000000000000000   15.0000000000000000
   B    C 
     8     8
Direct
  0.6708068221306746 -0.0020541650247019  0.1672287531210079
  0.3334524329889070 -0.0020210965704452  0.1672696634433401
  0.0020541650247019  0.3291921778693278  0.1672287531210079
  0.0020210965704452  0.6665465670110957  0.1672696634433401
  0.3332200638319220  0.3290604794619323  0.1664199882787583
  0.6709385205380701  0.6667789361680804  0.1664199882787583
  0.6685011066710465  0.3314978933289565  0.1546532229736128
  0.3352392545686866  0.6647597454313161  0.1791237033736977
  0.2479332118587070  0.2520020455552384  0.4021404142756656
  0.4145902473167021  0.0852951563724191  0.4020355076821698
  0.2479529039415670  0.7520460960584360  0.4021859771719734
  0.4147211623840258  0.5852778376159765  0.4022881750460263
  0.7479267071098891  0.2520722928901139  0.4020759333348111
  0.9146011736590116  0.0853978263409912  0.4020176678313676
  0.7479969544447641  0.7520657881412958  0.4021404142756656
  0.9147038436275835  0.5854087526833004  0.4020355076821699
 
  0.00000000E+00  0.00000000E+00  0.00000000E+00
  0.00000000E+00  0.00000000E+00  0.00000000E+00
  0.00000000E+00  0.00000000E+00  0.00000000E+00
  0.00000000E+00  0.00000000E+00  0.00000000E+00
  0.00000000E+00  0.00000000E+00  0.00000000E+00
  0.00000000E+00  0.00000000E+00  0.00000000E+00
  0.00000000E+00  0.00000000E+00  0.00000000E+00
  0.00000000E+00  0.00000000E+00  0.00000000E+00
  0.00000000E+00  0.00000000E+00  0.00000000E+00
  0.00000000E+00  0.00000000E+00  0.00000000E+00
  0.00000000E+00  0.00000000E+00  0.00000000E+00
  0.00000000E+00  0.00000000E+00  0.00000000E+00
  0.00000000E+00  0.00000000E+00  0.00000000E+00
  0.00000000E+00  0.00000000E+00  0.00000000E+00
  0.00000000E+00  0.00000000E+00  0.00000000E+00
  0.00000000E+00  0.00000000E+00  0.00000000E+00
