Graphene-Borophene Hollow 2 with lattice
   1.00000000000000     
     4.3136725362502881    2.4904999999999999    0.0000000000000000
    -4.3136725362502881    2.4904999999999999    0.0000000000000000
     0.0000000000000000    0.0000000000000000   15.0000000000000000
   B    C 
     8     8
Direct
  0.6694958788854265 -0.0000465538401970  0.1669466448603447
  0.3304565672743787 -0.0000465538401970  0.1669466448603447
  0.0000465538401970  0.3305031211145760  0.1669466448603447
  0.0000465538401970  0.6695424327256239  0.1669466448603448
  0.3304565672743787  0.3305031211145760  0.1669466448603447
  0.6694958788854265  0.6695424327256239  0.1669466448603448
  0.6666659999999993  0.3333330000000032  0.1614088127204433
  0.3333330000000032  0.6666659999999993  0.1731645071739208
  0.3333635335738233  0.1666817667869187  0.4035558897979694
  0.5000243862547842  0.0000487725095697  0.4036227957470858
  0.3333326666666636  0.6666663333333389  0.4035644907073598
  0.5000243862547842  0.4999746137452175  0.4036227957470858
  0.8333172332130843  0.1666817667869187  0.4035558897979694
  0.9999996666666675  0.9999993333333350  0.4034462636010338
  0.8333172332130843  0.6666354664261800  0.4035558897979694
 -0.0000497725095672  0.4999746137452175  0.4036227957470858
 
  0.00000000E+00  0.00000000E+00  0.00000000E+00
  0.00000000E+00  0.00000000E+00  0.00000000E+00
  0.00000000E+00  0.00000000E+00  0.00000000E+00
  0.00000000E+00  0.00000000E+00  0.00000000E+00
  0.00000000E+00  0.00000000E+00  0.00000000E+00
  0.00000000E+00  0.00000000E+00  0.00000000E+00
  0.00000000E+00  0.00000000E+00  0.00000000E+00
  0.00000000E+00  0.00000000E+00  0.00000000E+00
  0.00000000E+00  0.00000000E+00  0.00000000E+00
  0.00000000E+00  0.00000000E+00  0.00000000E+00
  0.00000000E+00  0.00000000E+00  0.00000000E+00
  0.00000000E+00  0.00000000E+00  0.00000000E+00
  0.00000000E+00  0.00000000E+00  0.00000000E+00
  0.00000000E+00  0.00000000E+00  0.00000000E+00
  0.00000000E+00  0.00000000E+00  0.00000000E+00
  0.00000000E+00  0.00000000E+00  0.00000000E+00
