Graphene-BC3 Hollow with lattice paramet
   1.00000000000000     
     4.2868257487329711    2.4750000000000001    0.0000000000000000
    -4.2868257487329711    2.4750000000000001    0.0000000000000000
     0.0000000000000000    0.0000000000000000   15.0000000000000000
   B    C 
     2    14
Direct
  0.3382320215633701  0.6691188004711397  0.1007617361264055
  0.6715709138600936  0.3357882801994970  0.1004334935359417
  0.1651130652450678  0.3228609007047070  0.1004791481633264
  0.3252391954162759  0.1626170724167653  0.1004994628051052
  0.1651104841743815  0.8422455972589622  0.1004811223150293
  0.8447422544988095  0.1626180210235074  0.1004518389692854
  0.6844952837231817  0.8422416878006469  0.1004354268168128
  0.8447439853101860  0.6821189241973485  0.1004538415270806
  0.3334403928010561  0.1667214025473152  0.3250861206096926
  0.5001263891698023  0.0001193189126371  0.3250577977007835
  0.3334252130899863  0.6667137581577752  0.3247907268385108
  0.5001262554299239  0.5000099549520457  0.3250578094723826
  0.8334223088155404  0.1667220032455089  0.3250813180481487
  0.0000943740929054  0.0000485806614647  0.3250573918668364
  0.8334221831592880  0.6667024814634441  0.3250813271464630
  0.0000210129834646  0.5000118826539300  0.3250581047248675
 
  0.00000000E+00  0.00000000E+00  0.00000000E+00
  0.00000000E+00  0.00000000E+00  0.00000000E+00
  0.00000000E+00  0.00000000E+00  0.00000000E+00
  0.00000000E+00  0.00000000E+00  0.00000000E+00
  0.00000000E+00  0.00000000E+00  0.00000000E+00
  0.00000000E+00  0.00000000E+00  0.00000000E+00
  0.00000000E+00  0.00000000E+00  0.00000000E+00
  0.00000000E+00  0.00000000E+00  0.00000000E+00
  0.00000000E+00  0.00000000E+00  0.00000000E+00
  0.00000000E+00  0.00000000E+00  0.00000000E+00
  0.00000000E+00  0.00000000E+00  0.00000000E+00
  0.00000000E+00  0.00000000E+00  0.00000000E+00
  0.00000000E+00  0.00000000E+00  0.00000000E+00
  0.00000000E+00  0.00000000E+00  0.00000000E+00
  0.00000000E+00  0.00000000E+00  0.00000000E+00
  0.00000000E+00  0.00000000E+00  0.00000000E+00
