Graphene-BC3 Hollow with lattice paramet
   1.00000000000000     
     4.3699641874962758    2.5229999999999992    0.0000000000000000
    -4.3699641874962758    2.5229999999999992    0.0000000000000000
     0.0000000000000000    0.0000000000000000   15.0000000000000000
   B    C 
     2    14
Direct
  0.3383141415131398  0.6691561701134839  0.1003358108915763
  0.6716512354326786  0.3358250089556524  0.0999791701708383
  0.1645953079074317  0.3217098700000725  0.1000319685096948
  0.3241243106287908  0.1620603835903124  0.1000283895702786
  0.1645921836751805  0.8428805744770607  0.1000320225289346
  0.8454048071504191  0.1620611542938416  0.1000224019219157
  0.6857583134980080  0.8428785459298511  0.1000262995898443
  0.8454030392603964  0.6833449195749178  0.1000223265373391
  0.3333770815066606  0.1666878915784736  0.3255242909167388
  0.5000557738075804  0.0000955703371907  0.3254945732925760
  0.3333535888544362  0.6666761473747576  0.3252283882092489
  0.5000557587370358  0.4999620550812712  0.3254945716951252
  0.8333471548789712  0.1666894843595929  0.3255196469286477
  0.0000167791100200  0.0000092976225568  0.3255121019340543
  0.8333471087479423  0.6666562987069709  0.3255196688902795
  0.9999287486246432  0.4999652946706885  0.3254950350795802
 
  0.00000000E+00  0.00000000E+00  0.00000000E+00
  0.00000000E+00  0.00000000E+00  0.00000000E+00
  0.00000000E+00  0.00000000E+00  0.00000000E+00
  0.00000000E+00  0.00000000E+00  0.00000000E+00
  0.00000000E+00  0.00000000E+00  0.00000000E+00
  0.00000000E+00  0.00000000E+00  0.00000000E+00
  0.00000000E+00  0.00000000E+00  0.00000000E+00
  0.00000000E+00  0.00000000E+00  0.00000000E+00
  0.00000000E+00  0.00000000E+00  0.00000000E+00
  0.00000000E+00  0.00000000E+00  0.00000000E+00
  0.00000000E+00  0.00000000E+00  0.00000000E+00
  0.00000000E+00  0.00000000E+00  0.00000000E+00
  0.00000000E+00  0.00000000E+00  0.00000000E+00
  0.00000000E+00  0.00000000E+00  0.00000000E+00
  0.00000000E+00  0.00000000E+00  0.00000000E+00
  0.00000000E+00  0.00000000E+00  0.00000000E+00
