Graphene-Borophene Top with lattice para
   1.00000000000000     
     4.3119404854427197    2.4895000000000000    0.0000000000000000
    -4.3119404854427197    2.4895000000000000    0.0000000000000000
     0.0000000000000000    0.0000000000000000   15.0000000000000000
    B
    8
Direct
  0.6685294863562933  0.0000317435822470  0.1014908743568649
  0.3315012572259560  0.0000317435822470  0.1014908743568649
 -0.0000317435822470  0.3314695136437092  0.1014908743568649
 -0.0000317435822470  0.6684977427740463  0.1014908743568649
  0.3315012572259560  0.3314695136437092  0.1014908743568649
  0.6685294863562933  0.6684977427740463  0.1014908743568649
  0.6666659999999993  0.3333330000000032  0.0884552167655001
  0.3333330000000032  0.6666659999999993  0.1144240571333262
