Graphene-B4C3 Hollow 2 with lattice para
   1.00000000000000     
     4.1889648781053292    2.4184999999999999    0.0000000000000000
    -4.1889648781053292    2.4184999999999999    0.0000000000000000
     0.0000000000000000    0.0000000000000000   15.0000000000000000
   B    C 
     4    11
Direct
  0.0043800444579928  0.0029091082265243  0.0994370191613096
  0.3595292275517643  0.0029157646566472  0.1012332891625820
  0.0043897507578748  0.3580595984815614  0.1012354701045754
  0.6492388759880114  0.6477648741058728  0.1012395057934515
  0.3281391922607566  0.3266655310025361  0.1009611954669418
  0.6806345281314897  0.0029144841546631  0.1009571312500959
  0.0043872276420197  0.6791597484759189  0.1009569990647891
  0.1664717422973194  0.3332128600849832  0.3381794783085216
  0.3331566167369608  0.1665278246332303  0.3381812569810341
  0.1665079519476060  0.8332320782700207  0.3381835091792141
  0.3331587289993059  0.6665485459326389  0.3380705321857813
  0.6664920718912785  0.3332138126386249  0.3380705285112450
  0.8331750590668752  0.1665637240273941  0.3381829049800380
  0.6664917677111224  0.8331977025508174  0.3381791747898271
  0.8331412145596281  0.6665483427585770  0.3381780050606208
 
  0.00000000E+00  0.00000000E+00  0.00000000E+00
  0.00000000E+00  0.00000000E+00  0.00000000E+00
  0.00000000E+00  0.00000000E+00  0.00000000E+00
  0.00000000E+00  0.00000000E+00  0.00000000E+00
  0.00000000E+00  0.00000000E+00  0.00000000E+00
  0.00000000E+00  0.00000000E+00  0.00000000E+00
  0.00000000E+00  0.00000000E+00  0.00000000E+00
  0.00000000E+00  0.00000000E+00  0.00000000E+00
  0.00000000E+00  0.00000000E+00  0.00000000E+00
  0.00000000E+00  0.00000000E+00  0.00000000E+00
  0.00000000E+00  0.00000000E+00  0.00000000E+00
  0.00000000E+00  0.00000000E+00  0.00000000E+00
  0.00000000E+00  0.00000000E+00  0.00000000E+00
  0.00000000E+00  0.00000000E+00  0.00000000E+00
  0.00000000E+00  0.00000000E+00  0.00000000E+00
