k-points 3
0
Gamma
3    3    1
0    0    0