Graphene-B4C3 Top with lattice parameter
   1.00000000000000     
     4.1906969289128986    2.4195000000000002    0.0000000000000000
    -4.1906969289128986    2.4195000000000002    0.0000000000000000
     0.0000000000000000    0.0000000000000000   15.0000000000000000
   B    C 
     4    11
Direct
  0.0041382420657847  0.0027067492565104  0.1059852755078618
  0.3592078689991943  0.0030939432058190  0.1006896509017605
  0.0038537310904682  0.3574764454464870  0.1006917527358025
  0.6494079062699653  0.6477335100774277  0.1006842428806199
  0.3279333374993067  0.3261574368761581  0.1011771136558256
  0.6807678219099917  0.0031671817978428  0.1011766823675129
  0.0037786015596967  0.6789709699927033  0.1011729590702030
  0.0000518655768626  0.5000320933165613  0.3340023505382453
  0.1667098950360862  0.3334118799351737  0.3340181753708816
  0.0000451695271492  0.0000188200616827  0.3339840683676646
  0.1666999118572943  0.8333080237173669  0.3340224210845972
  0.5000342830158969  0.5000134001216449  0.3340047428339253
  0.6666725642320385  0.3333476098811315  0.3338832646814578
  0.5000521249042086  0.0000125860671103  0.3340013243248834
  0.6666073431227495  0.8333166835797059  0.3340186423454407
 
  0.00000000E+00  0.00000000E+00  0.00000000E+00
  0.00000000E+00  0.00000000E+00  0.00000000E+00
  0.00000000E+00  0.00000000E+00  0.00000000E+00
  0.00000000E+00  0.00000000E+00  0.00000000E+00
  0.00000000E+00  0.00000000E+00  0.00000000E+00
  0.00000000E+00  0.00000000E+00  0.00000000E+00
  0.00000000E+00  0.00000000E+00  0.00000000E+00
  0.00000000E+00  0.00000000E+00  0.00000000E+00
  0.00000000E+00  0.00000000E+00  0.00000000E+00
  0.00000000E+00  0.00000000E+00  0.00000000E+00
  0.00000000E+00  0.00000000E+00  0.00000000E+00
  0.00000000E+00  0.00000000E+00  0.00000000E+00
  0.00000000E+00  0.00000000E+00  0.00000000E+00
  0.00000000E+00  0.00000000E+00  0.00000000E+00
  0.00000000E+00  0.00000000E+00  0.00000000E+00
