Graphene-BC3 Top with lattice parameter 
   1.00000000000000     
     4.3690981620924925    2.5225000000000000    0.0000000000000000
    -4.3690981620924925    2.5225000000000000    0.0000000000000000
     0.0000000000000000    0.0000000000000000   15.0000000000000000
   B    C 
     2    14
Direct
  0.3383345866030835  0.6691672821363270  0.1002339670448842
  0.6716676143521170  0.3358336508441289  0.1002339523629962
  0.1646190011767359  0.3217319610065480  0.0999096947710504
  0.3242353809981975  0.1621178272527587  0.0999087395064398
  0.1646201437690751  0.8428876597329860  0.0999096907051139
  0.8453903910256371  0.1621152048331116  0.0999111812821033
  0.6857781088478715  0.8428880906301265  0.0999117555631443
  0.8453917453548954  0.6832744373534058  0.0999111762859583
  0.1665647228925868  0.3331366358188281  0.3288840631931947
  0.3331340321131906  0.1665668137113210  0.3288851790585875
  0.1665647238351485  0.8334276815891580  0.3288840627576441
  0.3333265575609672  0.6666630780660058  0.3285864233597514
  0.6666599392022753  0.3333297668770979  0.3285864229427619
  0.8334251521887542  0.1665673902893942  0.3288816603975263
  0.6668547530229986  0.8334271736700263  0.3288803707753287
  0.8334251470564858  0.6668573461887851  0.3288816599935349
 
  0.00000000E+00  0.00000000E+00  0.00000000E+00
  0.00000000E+00  0.00000000E+00  0.00000000E+00
  0.00000000E+00  0.00000000E+00  0.00000000E+00
  0.00000000E+00  0.00000000E+00  0.00000000E+00
  0.00000000E+00  0.00000000E+00  0.00000000E+00
  0.00000000E+00  0.00000000E+00  0.00000000E+00
  0.00000000E+00  0.00000000E+00  0.00000000E+00
  0.00000000E+00  0.00000000E+00  0.00000000E+00
  0.00000000E+00  0.00000000E+00  0.00000000E+00
  0.00000000E+00  0.00000000E+00  0.00000000E+00
  0.00000000E+00  0.00000000E+00  0.00000000E+00
  0.00000000E+00  0.00000000E+00  0.00000000E+00
  0.00000000E+00  0.00000000E+00  0.00000000E+00
  0.00000000E+00  0.00000000E+00  0.00000000E+00
  0.00000000E+00  0.00000000E+00  0.00000000E+00
  0.00000000E+00  0.00000000E+00  0.00000000E+00
