Graphene-Borophene Bridge with lattice p
   1.00000000000000     
     4.3301270189221928    2.5000000000000000    0.0000000000000000
    -4.3301270189221928    2.5000000000000000    0.0000000000000000
     0.0000000000000000    0.0000000000000000   15.0000000000000000
   B    C 
     8     8
Direct
  0.6697945761046090 -0.0000842939113596  0.1638775879411131
  0.3305026294714914  0.0000193538287311  0.1640420288915821
  0.0000842939113596  0.3302044238953934  0.1638775879411131
 -0.0000193538287311  0.6694963705285113  0.1640420288915821
  0.3305511429462869  0.3305049753046354  0.1640710840473208
  0.6694940246953670  0.6694478570537157  0.1640710840473207
  0.6666371784359993  0.3333618215640033  0.1728356842414418
  0.3332775412453072  0.6667214587546951  0.1689045970486786
  0.2529965627500521  0.2531954360060673  0.4038043498750066
  0.4187304768283572  0.0823547369178197  0.4028860075137063
  0.2503923983044413  0.7496066016955611  0.4022727569800366
  0.4159147559400171  0.5840842440599855  0.4032701146291273
  0.7480925552104922  0.2519064447895102  0.4035146929343829
  0.9157630575755358  0.0842359424244668  0.4043733709622465
  0.7468035639939353  0.7470024372499503  0.4038043498750066
  0.9176442630821827  0.5812685231716451  0.4028860075137063
 
  0.00000000E+00  0.00000000E+00  0.00000000E+00
  0.00000000E+00  0.00000000E+00  0.00000000E+00
  0.00000000E+00  0.00000000E+00  0.00000000E+00
  0.00000000E+00  0.00000000E+00  0.00000000E+00
  0.00000000E+00  0.00000000E+00  0.00000000E+00
  0.00000000E+00  0.00000000E+00  0.00000000E+00
  0.00000000E+00  0.00000000E+00  0.00000000E+00
  0.00000000E+00  0.00000000E+00  0.00000000E+00
  0.00000000E+00  0.00000000E+00  0.00000000E+00
  0.00000000E+00  0.00000000E+00  0.00000000E+00
  0.00000000E+00  0.00000000E+00  0.00000000E+00
  0.00000000E+00  0.00000000E+00  0.00000000E+00
  0.00000000E+00  0.00000000E+00  0.00000000E+00
  0.00000000E+00  0.00000000E+00  0.00000000E+00
  0.00000000E+00  0.00000000E+00  0.00000000E+00
  0.00000000E+00  0.00000000E+00  0.00000000E+00
