Graphene-B4C3 Top with lattice parameter
   1.00000000000000     
     4.1898309035091144    2.4190000000000000    0.0000000000000000
    -4.1898309035091144    2.4190000000000000    0.0000000000000000
     0.0000000000000000    0.0000000000000000   15.0000000000000000
   B    C 
     4    11
Direct
  0.0040524258067444  0.0026978012033157  0.1017830095198114
  0.3592345957764846  0.0029633613875899  0.1005047216333232
  0.0037756900240819  0.3576005334549391  0.1005055650483173
  0.6491397576266896  0.6475136102524494  0.1005017282610410
  0.3278351072963330  0.3262061939240230  0.1005804723592855
  0.6805333815066008  0.0029658964982447  0.1005812854151103
  0.0037796901817080  0.6789008197074028  0.1005790375829706
  0.0001398550989558  0.5000672059207709  0.3348136025647667
  0.1667856204688363  0.3334521883638714  0.3348481442276227
  0.0001195104131520  0.0000726390338211  0.3347747246301404
  0.1668262388319406  0.8334041715006989  0.3348522883499565
  0.5001277238874230  0.5001021100820854  0.3348163032021786
  0.6667830856836663  0.3334071644093702  0.3347111855247231
  0.5000910812960302  0.0000521697759965  0.3348121614849379
  0.6667369027680464  0.8333614678187472  0.3348484368624966
 
  0.00000000E+00  0.00000000E+00  0.00000000E+00
  0.00000000E+00  0.00000000E+00  0.00000000E+00
  0.00000000E+00  0.00000000E+00  0.00000000E+00
  0.00000000E+00  0.00000000E+00  0.00000000E+00
  0.00000000E+00  0.00000000E+00  0.00000000E+00
  0.00000000E+00  0.00000000E+00  0.00000000E+00
  0.00000000E+00  0.00000000E+00  0.00000000E+00
  0.00000000E+00  0.00000000E+00  0.00000000E+00
  0.00000000E+00  0.00000000E+00  0.00000000E+00
  0.00000000E+00  0.00000000E+00  0.00000000E+00
  0.00000000E+00  0.00000000E+00  0.00000000E+00
  0.00000000E+00  0.00000000E+00  0.00000000E+00
  0.00000000E+00  0.00000000E+00  0.00000000E+00
  0.00000000E+00  0.00000000E+00  0.00000000E+00
  0.00000000E+00  0.00000000E+00  0.00000000E+00
