Graphene-BC3 Hollow with lattice paramet
   1.00000000000000     
     4.3682321366887082    2.5219999999999998    0.0000000000000000
    -4.3682321366887082    2.5219999999999998    0.0000000000000000
     0.0000000000000000    0.0000000000000000   15.0000000000000000
   B    C 
     2    14
Direct
  0.3382429811594299  0.6691202143088265  0.1136058992419957
  0.6715793788871816  0.3357881368493419  0.1132733724552805
  0.1645160678642099  0.3216691556225093  0.1132382227380587
  0.3240456523453340  0.1620224679907250  0.1132529136058718
  0.1645166351585464  0.8428466040960408  0.1132428700925943
  0.8453396319456024  0.1620219472713026  0.1132412868163534
  0.6856877304747414  0.8428437136086999  0.1132322333519255
  0.8453381102618093  0.6833168163617480  0.1132461009037699
  0.3334444060394418  0.1667220015633599  0.3379659585009344
  0.5001354417114884  0.0001392833386853  0.3379347137214801
  0.3334212025508496  0.6667104352051216  0.3376306006664839
  0.5001354575031612  0.4999965632706520  0.3379347503714907
  0.8334149396680570  0.1667232246293698  0.3379608330430529
  0.0000931485708265  0.0000468624201704  0.3379441470853412
  0.8334148528694977  0.6666911687640663  0.3379608929668243
 -0.0000003036768423  0.5000000713660733  0.3379352044385434
 
  0.00000000E+00  0.00000000E+00  0.00000000E+00
  0.00000000E+00  0.00000000E+00  0.00000000E+00
  0.00000000E+00  0.00000000E+00  0.00000000E+00
  0.00000000E+00  0.00000000E+00  0.00000000E+00
  0.00000000E+00  0.00000000E+00  0.00000000E+00
  0.00000000E+00  0.00000000E+00  0.00000000E+00
  0.00000000E+00  0.00000000E+00  0.00000000E+00
  0.00000000E+00  0.00000000E+00  0.00000000E+00
  0.00000000E+00  0.00000000E+00  0.00000000E+00
  0.00000000E+00  0.00000000E+00  0.00000000E+00
  0.00000000E+00  0.00000000E+00  0.00000000E+00
  0.00000000E+00  0.00000000E+00  0.00000000E+00
  0.00000000E+00  0.00000000E+00  0.00000000E+00
  0.00000000E+00  0.00000000E+00  0.00000000E+00
  0.00000000E+00  0.00000000E+00  0.00000000E+00
  0.00000000E+00  0.00000000E+00  0.00000000E+00
