Graphene-Borophene Top with lattice para
   1.00000000000000     
     4.3145385616540723    2.4909999999999997    0.0000000000000000
    -4.3145385616540723    2.4909999999999997    0.0000000000000000
     0.0000000000000000    0.0000000000000000   15.0000000000000000
   B    C 
     8     8
Direct
  0.6684897547072122  0.0000063959883943  0.1668040466277065
  0.3315156412811848  0.0000063959883943  0.1668040466277065
 -0.0000063959883943  0.3315092452927906  0.1668040466277065
 -0.0000063959883943  0.6684833587188178  0.1668040466277065
  0.3315156412811848  0.3315092452927906  0.1668040466277065
  0.6684897547072122  0.6684833587188178  0.1668040466277065
  0.6666659999999993  0.3333330000000032  0.1540755530929031
  0.3333330000000032  0.6666659999999993  0.1796466881170683
  0.1666525717508343  0.3333061435016732  0.4009485305546859
  0.3333348436181613  0.1666669218090784  0.4008680947473355
  0.1666525717508343  0.8333464282491685  0.4009485305546859
  0.3333330000000032  0.6666659999999993  0.4010115908093720
  0.6666659999999993  0.3333330000000032  0.4008586789750451
  0.8333320781909240  0.1666669218090784  0.4008680947473355
  0.6666928564983294  0.8333464282491685  0.4009485305546859
  0.8333320781909241  0.6666641563818412  0.4008680947473355
 
  0.00000000E+00  0.00000000E+00  0.00000000E+00
  0.00000000E+00  0.00000000E+00  0.00000000E+00
  0.00000000E+00  0.00000000E+00  0.00000000E+00
  0.00000000E+00  0.00000000E+00  0.00000000E+00
  0.00000000E+00  0.00000000E+00  0.00000000E+00
  0.00000000E+00  0.00000000E+00  0.00000000E+00
  0.00000000E+00  0.00000000E+00  0.00000000E+00
  0.00000000E+00  0.00000000E+00  0.00000000E+00
  0.00000000E+00  0.00000000E+00  0.00000000E+00
  0.00000000E+00  0.00000000E+00  0.00000000E+00
  0.00000000E+00  0.00000000E+00  0.00000000E+00
  0.00000000E+00  0.00000000E+00  0.00000000E+00
  0.00000000E+00  0.00000000E+00  0.00000000E+00
  0.00000000E+00  0.00000000E+00  0.00000000E+00
  0.00000000E+00  0.00000000E+00  0.00000000E+00
  0.00000000E+00  0.00000000E+00  0.00000000E+00
