Graphene-Borophene Top with lattice para
   1.00000000000000     
     4.3145385616540723    2.4909999999999997    0.0000000000000000
    -4.3145385616540723    2.4909999999999997    0.0000000000000000
     0.0000000000000000    0.0000000000000000   15.0000000000000000
   B    C 
     8     8
Direct
  0.6695906532954240 -0.0001501640329278  0.1663103364452791
  0.3302581826716508 -0.0001501640329278  0.1663103364452791
  0.0001501640329278  0.3304083467045786  0.1663103364452791
  0.0001501640329278  0.6697408173283520  0.1663103364452791
  0.3302581826716508  0.3304083467045786  0.1663103364452791
  0.6695906532954240  0.6697408173283520  0.1663103364452791
  0.6666659999999993  0.3333330000000032  0.1654626585440578
  0.3333330000000032  0.6666659999999993  0.1798613968078261
  0.1695920591263831  0.3391851182527709  0.3997995405606091
  0.3390244077085615  0.1695117038542784  0.3998438192061499
  0.1695920591263831  0.8304069408736193  0.3997995405606091
  0.3333330000000032  0.6666659999999993  0.3998039391840646
  0.6666659999999993  0.3333330000000032  0.3999465741587921
  0.8304872961457240  0.1695117038542784  0.3998438192061499
  0.6608138817472319  0.8304069408736193  0.3997995405606091
  0.8304872961457240  0.6609745922914410  0.3998438192061499
 
  0.00000000E+00  0.00000000E+00  0.00000000E+00
  0.00000000E+00  0.00000000E+00  0.00000000E+00
  0.00000000E+00  0.00000000E+00  0.00000000E+00
  0.00000000E+00  0.00000000E+00  0.00000000E+00
  0.00000000E+00  0.00000000E+00  0.00000000E+00
  0.00000000E+00  0.00000000E+00  0.00000000E+00
  0.00000000E+00  0.00000000E+00  0.00000000E+00
  0.00000000E+00  0.00000000E+00  0.00000000E+00
  0.00000000E+00  0.00000000E+00  0.00000000E+00
  0.00000000E+00  0.00000000E+00  0.00000000E+00
  0.00000000E+00  0.00000000E+00  0.00000000E+00
  0.00000000E+00  0.00000000E+00  0.00000000E+00
  0.00000000E+00  0.00000000E+00  0.00000000E+00
  0.00000000E+00  0.00000000E+00  0.00000000E+00
  0.00000000E+00  0.00000000E+00  0.00000000E+00
  0.00000000E+00  0.00000000E+00  0.00000000E+00
