Graphene-BC3 Bridge with lattice paramet
   1.00000000000000     
     4.4080693052627904    2.5449999999999990    0.0000000000000000
    -4.4080693052627904    2.5449999999999990    0.0000000000000000
     0.0000000000000000    0.0000000000000000   15.0000000000000000
   B    C 
     2    14
Direct
  0.3090762239520203  0.7007768151915416  0.1006507316175396
  0.6424268650842542  0.3674352962382164  0.1003586756356097
  0.1350717193518358  0.3527736519195426  0.1003647006912320
  0.2943023825005427  0.1934134067180543  0.1003231577961109
  0.1350435771663777  0.8748131430085132  0.1002892723265278
  0.8164505276572189  0.1933985199462863  0.1003961406632547
  0.6570740033858511  0.8747832272511028  0.1003610875200239
  0.8164431436117009  0.7155559370471704  0.1003186075883124
  0.2792728378645845  0.2183619759881845  0.3260192302259875
  0.4459360993531014  0.0517934520158451  0.3259856798187035
  0.2792483292644114  0.7183944486426751  0.3257072389605751
  0.4459744307645003  0.5516628924609064  0.3259544856061374
  0.7792583051680132  0.2183871871683406  0.3259560334659893
  0.9459464643337294  0.0516983719647546  0.3259845980906990
  0.7792831867802629  0.7183723108773243  0.3260151834066486
  0.9458505704283001  0.5517046968948652  0.3259818432533059
 
  0.00000000E+00  0.00000000E+00  0.00000000E+00
  0.00000000E+00  0.00000000E+00  0.00000000E+00
  0.00000000E+00  0.00000000E+00  0.00000000E+00
  0.00000000E+00  0.00000000E+00  0.00000000E+00
  0.00000000E+00  0.00000000E+00  0.00000000E+00
  0.00000000E+00  0.00000000E+00  0.00000000E+00
  0.00000000E+00  0.00000000E+00  0.00000000E+00
  0.00000000E+00  0.00000000E+00  0.00000000E+00
  0.00000000E+00  0.00000000E+00  0.00000000E+00
  0.00000000E+00  0.00000000E+00  0.00000000E+00
  0.00000000E+00  0.00000000E+00  0.00000000E+00
  0.00000000E+00  0.00000000E+00  0.00000000E+00
  0.00000000E+00  0.00000000E+00  0.00000000E+00
  0.00000000E+00  0.00000000E+00  0.00000000E+00
  0.00000000E+00  0.00000000E+00  0.00000000E+00
  0.00000000E+00  0.00000000E+00  0.00000000E+00
