BC3 with lattice parameter 5.169        
   1.00000000000000     
     4.4764850000000003    2.5844999999999998    0.0000000000000000
    -4.4764850000000003    2.5844999999999998    0.0000000000000000
     0.0000000000000000    0.0000000000000000   15.0000000000000000
   B    C 
     2     6
Direct
  0.3383322064619005  0.6691650866193988  0.2500000000000000
  0.6716633548053863  0.3358348333971500  0.2500000000000000
  0.1636474247926330  0.3198159223980823  0.2500000000000000
  0.3223153483772891  0.1611693699564799  0.2500000000000000
  0.1636730268259275  0.8438528484729814  0.2500000000000000
  0.8463269075026310  0.1611472090478250  0.2500000000000000
  0.6876845495025700  0.8438288592195541  0.2500000000000000
  0.8463531817316721  0.6851818708885276  0.2500000000000000
 
  0.00000000E+00  0.00000000E+00  0.00000000E+00
  0.00000000E+00  0.00000000E+00  0.00000000E+00
  0.00000000E+00  0.00000000E+00  0.00000000E+00
  0.00000000E+00  0.00000000E+00  0.00000000E+00
  0.00000000E+00  0.00000000E+00  0.00000000E+00
  0.00000000E+00  0.00000000E+00  0.00000000E+00
  0.00000000E+00  0.00000000E+00  0.00000000E+00
  0.00000000E+00  0.00000000E+00  0.00000000E+00
