Graphene-BC3 Hollow with lattice paramet
   1.00000000000000     
     4.3682321366887082    2.5219999999999998    0.0000000000000000
    -4.3682321366887082    2.5219999999999998    0.0000000000000000
     0.0000000000000000    0.0000000000000000   15.0000000000000000
   B    C 
     2    14
Direct
  0.3382272909948379  0.6691091781698594  0.1135224462231836
  0.6715635683523103  0.3357762975389661  0.1131938670652096
  0.1645072682918426  0.3216667262202066  0.1131733788957435
  0.3240415933477244  0.1620162469713863  0.1131840589043928
  0.1645064006954378  0.8428286266269163  0.1131753793759010
  0.8453185403992743  0.1620153259311738  0.1131759344962250
  0.6856636593057002  0.8428255607006211  0.1131680987347776
  0.8453179135875272  0.6832946246429836  0.1131779899940173
  0.3334572971331353  0.1667333554527544  0.3380338977517989
  0.5001483814790082  0.0001464521195835  0.3380062145354498
  0.3334363228193752  0.6667228456462283  0.3377064483593950
  0.5001483884121031  0.5000108146025212  0.3380062212054516
  0.8334306735381459  0.1667346043654580  0.3380289520690678
  0.0001081676403911  0.0000584927920238  0.3380113350671786
  0.8334306736533004  0.6667054741592534  0.3380289920570407
  0.0000191936832207  0.5000140407267601  0.3380067852651675
 
  0.00000000E+00  0.00000000E+00  0.00000000E+00
  0.00000000E+00  0.00000000E+00  0.00000000E+00
  0.00000000E+00  0.00000000E+00  0.00000000E+00
  0.00000000E+00  0.00000000E+00  0.00000000E+00
  0.00000000E+00  0.00000000E+00  0.00000000E+00
  0.00000000E+00  0.00000000E+00  0.00000000E+00
  0.00000000E+00  0.00000000E+00  0.00000000E+00
  0.00000000E+00  0.00000000E+00  0.00000000E+00
  0.00000000E+00  0.00000000E+00  0.00000000E+00
  0.00000000E+00  0.00000000E+00  0.00000000E+00
  0.00000000E+00  0.00000000E+00  0.00000000E+00
  0.00000000E+00  0.00000000E+00  0.00000000E+00
  0.00000000E+00  0.00000000E+00  0.00000000E+00
  0.00000000E+00  0.00000000E+00  0.00000000E+00
  0.00000000E+00  0.00000000E+00  0.00000000E+00
  0.00000000E+00  0.00000000E+00  0.00000000E+00
