k-points 57
0
Gamma
57    57    1
0    0    0