Graphene-Borophene Top with lattice para
   1.00000000000000     
     4.3647680350735678    2.5199999999999987    0.0000000000000000
    -4.3647680350735678    2.5199999999999987    0.0000000000000000
     0.0000000000000000    0.0000000000000000   15.0000000000000000
   B    C 
     8     8
Direct
  0.6687413775243071  0.0000228254019028  0.1660609513973483
  0.3312804478775989  0.0000228254019029  0.1660609513973483
 -0.0000228254019029  0.3312576224756961  0.1660609513973483
 -0.0000228254019029  0.6687185521224033  0.1660609513973483
  0.3312804478775989  0.3312576224756961  0.1660609513973483
  0.6687413775243071  0.6687185521224033  0.1660609513973483
  0.6666659999999993  0.3333330000000032  0.1634051487032876
  0.3333330000000032  0.6666659999999993  0.1685606823865266
  0.1666648589220491  0.3333307178441028  0.4016898771045198
  0.3333290053187584  0.1666640026593769  0.4016764102319199
  0.1666648589220491  0.8333341410779534  0.4016898771045198
  0.3333330000000032  0.6666659999999993  0.4017266645144478
  0.6666659999999993  0.3333330000000032  0.4017096006690224
  0.8333349973406254  0.1666640026593769  0.4016764102319199
  0.6666682821559000  0.8333341410779533  0.4016898771045198
  0.8333349973406254  0.6666699946812438  0.4016764102319199
 
  0.00000000E+00  0.00000000E+00  0.00000000E+00
  0.00000000E+00  0.00000000E+00  0.00000000E+00
  0.00000000E+00  0.00000000E+00  0.00000000E+00
  0.00000000E+00  0.00000000E+00  0.00000000E+00
  0.00000000E+00  0.00000000E+00  0.00000000E+00
  0.00000000E+00  0.00000000E+00  0.00000000E+00
  0.00000000E+00  0.00000000E+00  0.00000000E+00
  0.00000000E+00  0.00000000E+00  0.00000000E+00
  0.00000000E+00  0.00000000E+00  0.00000000E+00
  0.00000000E+00  0.00000000E+00  0.00000000E+00
  0.00000000E+00  0.00000000E+00  0.00000000E+00
  0.00000000E+00  0.00000000E+00  0.00000000E+00
  0.00000000E+00  0.00000000E+00  0.00000000E+00
  0.00000000E+00  0.00000000E+00  0.00000000E+00
  0.00000000E+00  0.00000000E+00  0.00000000E+00
  0.00000000E+00  0.00000000E+00  0.00000000E+00
