Graphene-Borophene Bridge with lattice p
   1.00000000000000     
     4.2404933896305037    2.4482499999999998    0.0000000000000000
    -4.2404933896305037    2.4482499999999998    0.0000000000000000
     0.0000000000000000    0.0000000000000000   15.0000000000000000
   B    C 
     8     8
Direct
  0.6697424850929774 -0.0009405626612142  0.1655715704719517
  0.3313932878236068 -0.0009113954305569  0.1671238792327751
  0.0009405626612142  0.3302565149070252  0.1655715704719517
  0.0009113954305568  0.6686057121763955  0.1671238792327751
  0.3312399153580681  0.3300157233172094  0.1668177991396869
  0.6699832766827931  0.6687590846419349  0.1668177991396870
  0.6670759287038750  0.3329230712961275  0.1513024313762854
  0.3341009565325207  0.6658980434674814  0.1838155133395719
  0.2493534166069995  0.2506457887120542  0.4022347097378350
  0.4159717768995664  0.0840263882402354  0.4023389071462491
  0.2493255706581977  0.7506734293418046  0.4024297805308965
  0.4160235406602411  0.5839754593397610  0.4025032964180635
  0.7493126029615650  0.2506863970384375  0.4022978559054707
  0.9159591275468054  0.0840398724531968  0.4020107243060876
  0.7493532112879484  0.7506455833930031  0.4022347097378350
  0.9159726117597665  0.5840272231004355  0.4023389071462491
 
  0.00000000E+00  0.00000000E+00  0.00000000E+00
  0.00000000E+00  0.00000000E+00  0.00000000E+00
  0.00000000E+00  0.00000000E+00  0.00000000E+00
  0.00000000E+00  0.00000000E+00  0.00000000E+00
  0.00000000E+00  0.00000000E+00  0.00000000E+00
  0.00000000E+00  0.00000000E+00  0.00000000E+00
  0.00000000E+00  0.00000000E+00  0.00000000E+00
  0.00000000E+00  0.00000000E+00  0.00000000E+00
  0.00000000E+00  0.00000000E+00  0.00000000E+00
  0.00000000E+00  0.00000000E+00  0.00000000E+00
  0.00000000E+00  0.00000000E+00  0.00000000E+00
  0.00000000E+00  0.00000000E+00  0.00000000E+00
  0.00000000E+00  0.00000000E+00  0.00000000E+00
  0.00000000E+00  0.00000000E+00  0.00000000E+00
  0.00000000E+00  0.00000000E+00  0.00000000E+00
  0.00000000E+00  0.00000000E+00  0.00000000E+00
