Graphene-BC3 Bridge with lattice paramet
   1.00000000000000     
     4.3474475269978816    2.5099999999999998    0.0000000000000000
    -4.3474475269978816    2.5099999999999998    0.0000000000000000
     0.0000000000000000    0.0000000000000000   15.0000000000000000
   B    C 
     2    14
Direct
  0.3287136904939006  0.6794071482322057  0.1007798733453543
  0.6617575461259626  0.3462905267817873  0.1003860928404683
  0.1549397770687828  0.3322768088968247  0.1005535469956607
  0.3146061794677240  0.1724159106123661  0.1002429856247546
  0.1550888352174265  0.8529093109664259  0.1002767073556687
  0.8354218060159406  0.1727625148852222  0.1004608955619339
  0.6758372108192251  0.8532319661665573  0.1005601817876120
  0.8355815183632781  0.6934356512567267  0.1002449458400973
  0.2597146116045318  0.2395676002098268  0.3261140167369942
  0.4263289958656704  0.0729887463477657  0.3258889446211092
  0.2597572694620474  0.7396591383905596  0.3255725319332041
  0.4264861882078545  0.5729353449657856  0.3257234367276662
  0.7597270782013923  0.2396754517982966  0.3257296968301935
  0.9264177434253565  0.0729938922625645  0.3261530122295891
  0.7598575186504919  0.7397024369341154  0.3261089897232886
  0.9264226976771207  0.5730728846262954  0.3258708085130621
 
  0.00000000E+00  0.00000000E+00  0.00000000E+00
  0.00000000E+00  0.00000000E+00  0.00000000E+00
  0.00000000E+00  0.00000000E+00  0.00000000E+00
  0.00000000E+00  0.00000000E+00  0.00000000E+00
  0.00000000E+00  0.00000000E+00  0.00000000E+00
  0.00000000E+00  0.00000000E+00  0.00000000E+00
  0.00000000E+00  0.00000000E+00  0.00000000E+00
  0.00000000E+00  0.00000000E+00  0.00000000E+00
  0.00000000E+00  0.00000000E+00  0.00000000E+00
  0.00000000E+00  0.00000000E+00  0.00000000E+00
  0.00000000E+00  0.00000000E+00  0.00000000E+00
  0.00000000E+00  0.00000000E+00  0.00000000E+00
  0.00000000E+00  0.00000000E+00  0.00000000E+00
  0.00000000E+00  0.00000000E+00  0.00000000E+00
  0.00000000E+00  0.00000000E+00  0.00000000E+00
  0.00000000E+00  0.00000000E+00  0.00000000E+00
