Graphene-BC3 Hollow with lattice paramet
   1.00000000000000     
     4.3725622637076311    2.5245000000000002    0.0000000000000000
    -4.3725622637076311    2.5245000000000002    0.0000000000000000
     0.0000000000000000    0.0000000000000000   15.0000000000000000
   B    C 
     2    14
Direct
  0.3382869740134932  0.6691440106351690  0.1004001263626227
  0.6716239004218291  0.3358106409606852  0.1000781560000130
  0.1645500890027239  0.3216621900209540  0.1000928048964527
  0.3240559176579147  0.1620269315145829  0.1001016317580113
  0.1645495317738485  0.8428860861773438  0.1000928299298210
  0.8453981471926000  0.1620242696049429  0.1000893167533819
  0.6857652142880200  0.8428800310481048  0.1000803920647204
  0.8454002277787939  0.6833738529554237  0.1000891504276702
  0.3333985062071254  0.1666989024196772  0.3254555231595765
  0.5000831023603686  0.0001095377322542  0.3254419447109586
  0.3333800907921075  0.6666897014101325  0.3251384119376803
  0.5000831604772491  0.4999756808068017  0.3254419515365866
  0.8333752293372243  0.1667004914524233  0.3254505624559551
  0.0000438339072388  0.0000230025323209  0.3254204430756485
  0.8333753216361720  0.6666742141870340  0.3254505635312214
  0.9999560864866244  0.4999791232088452  0.3254428580663515
 
  0.00000000E+00  0.00000000E+00  0.00000000E+00
  0.00000000E+00  0.00000000E+00  0.00000000E+00
  0.00000000E+00  0.00000000E+00  0.00000000E+00
  0.00000000E+00  0.00000000E+00  0.00000000E+00
  0.00000000E+00  0.00000000E+00  0.00000000E+00
  0.00000000E+00  0.00000000E+00  0.00000000E+00
  0.00000000E+00  0.00000000E+00  0.00000000E+00
  0.00000000E+00  0.00000000E+00  0.00000000E+00
  0.00000000E+00  0.00000000E+00  0.00000000E+00
  0.00000000E+00  0.00000000E+00  0.00000000E+00
  0.00000000E+00  0.00000000E+00  0.00000000E+00
  0.00000000E+00  0.00000000E+00  0.00000000E+00
  0.00000000E+00  0.00000000E+00  0.00000000E+00
  0.00000000E+00  0.00000000E+00  0.00000000E+00
  0.00000000E+00  0.00000000E+00  0.00000000E+00
  0.00000000E+00  0.00000000E+00  0.00000000E+00
