Graphene-Borophene Bridge with lattice p
   1.00000000000000     
     4.3119404854427197    2.4895000000000000    0.0000000000000000
    -4.3119404854427197    2.4895000000000000    0.0000000000000000
     0.0000000000000000    0.0000000000000000   15.0000000000000000
   B    C 
     8     8
Direct
  0.6995661584748387 -0.0309694139879224  0.1013434357130733
  0.3624910152841022 -0.0309071404268278  0.1015050741657435
  0.0309694139879224  0.3004328415251646  0.1013434357130733
  0.0309071404268278  0.6375079847158983  0.1015050741657435
  0.3624487036832774  0.3005595152698200  0.1007680783550189
  0.6994394847301818  0.6375502963167253  0.1007680783550189
  0.6974553592223545  0.3025436407776492  0.0882921392553258
  0.3640641085844385  0.6359348914155646  0.1139940954288196
  0.2190843441617860  0.2808995383494547  0.3341717451890119
  0.3857589718638496  0.1142737195390344  0.3341051593283363
  0.2190613770845495  0.7809376229154530  0.3342394465736999
  0.3857657815309964  0.6142332184690072  0.3342261623145760
  0.7190683238189256  0.2809306761810765  0.3340836424835745
  0.8857547417011375  0.1142442582988649  0.3340441951082964
  0.7190994616505473  0.7809146558382167  0.3341717451890119
  0.8857252804609688  0.6142400281361523  0.3341051593283363
 
  0.00000000E+00  0.00000000E+00  0.00000000E+00
  0.00000000E+00  0.00000000E+00  0.00000000E+00
  0.00000000E+00  0.00000000E+00  0.00000000E+00
  0.00000000E+00  0.00000000E+00  0.00000000E+00
  0.00000000E+00  0.00000000E+00  0.00000000E+00
  0.00000000E+00  0.00000000E+00  0.00000000E+00
  0.00000000E+00  0.00000000E+00  0.00000000E+00
  0.00000000E+00  0.00000000E+00  0.00000000E+00
  0.00000000E+00  0.00000000E+00  0.00000000E+00
  0.00000000E+00  0.00000000E+00  0.00000000E+00
  0.00000000E+00  0.00000000E+00  0.00000000E+00
  0.00000000E+00  0.00000000E+00  0.00000000E+00
  0.00000000E+00  0.00000000E+00  0.00000000E+00
  0.00000000E+00  0.00000000E+00  0.00000000E+00
  0.00000000E+00  0.00000000E+00  0.00000000E+00
  0.00000000E+00  0.00000000E+00  0.00000000E+00
