Graphene-Borophene Hollow_1 with lattice
   1.00000000000000     
     4.3119404854427197    2.4895000000000000    0.0000000000000000
    -4.3119404854427197    2.4895000000000000    0.0000000000000000
     0.0000000000000000    0.0000000000000000   15.0000000000000000
   B    C 
     8     8
Direct
  0.6805089419889808 -0.0116485041693167  0.1009711161528024
  0.3432441418235285 -0.0115658856505127  0.1010324867156189
  0.0116485041693167  0.3194900580110205  0.1009711161528024
  0.0115658856505127  0.6567548581764741  0.1010324867156189
  0.3429771665027117  0.3196047865601488  0.1000378597581695
  0.6803942134398528  0.6570218334972916  0.1000378597581695
  0.6779068848494886  0.3220921151505148  0.0885155405327227
  0.3446602857044375  0.6553387142955650  0.1127394845297056
  0.2383987288866574  0.2615986248779876  0.3346858948280494
  0.4050583719280960  0.0949805697507538  0.3346522385742846
  0.2383790691020987  0.7616199308979043  0.3347327250082673
  0.4050785174108026  0.5949204825891997  0.3347681753389146
  0.7383776634931603  0.2616213365068427  0.3346567211256153
  0.9050424863457951  0.0949565136542082  0.3344948280735852
  0.7384003751220147  0.7616002711133459  0.3346858948280494
  0.9050184302492481  0.5949406280719070  0.3346522385742846
 
  0.00000000E+00  0.00000000E+00  0.00000000E+00
  0.00000000E+00  0.00000000E+00  0.00000000E+00
  0.00000000E+00  0.00000000E+00  0.00000000E+00
  0.00000000E+00  0.00000000E+00  0.00000000E+00
  0.00000000E+00  0.00000000E+00  0.00000000E+00
  0.00000000E+00  0.00000000E+00  0.00000000E+00
  0.00000000E+00  0.00000000E+00  0.00000000E+00
  0.00000000E+00  0.00000000E+00  0.00000000E+00
  0.00000000E+00  0.00000000E+00  0.00000000E+00
  0.00000000E+00  0.00000000E+00  0.00000000E+00
  0.00000000E+00  0.00000000E+00  0.00000000E+00
  0.00000000E+00  0.00000000E+00  0.00000000E+00
  0.00000000E+00  0.00000000E+00  0.00000000E+00
  0.00000000E+00  0.00000000E+00  0.00000000E+00
  0.00000000E+00  0.00000000E+00  0.00000000E+00
  0.00000000E+00  0.00000000E+00  0.00000000E+00
