Graphene-Borophene Hollow 2 with lattice
   1.00000000000000     
     4.3188686886729952    2.4935000000000000    0.0000000000000000
    -4.3188686886729952    2.4935000000000000    0.0000000000000000
     0.0000000000000000    0.0000000000000000   15.0000000000000000
   B    C 
     8     8
Direct
  0.6694942805109141 -0.0000478173273731  0.1668642493687029
  0.3304569021617156 -0.0000478173273731  0.1668642493687029
  0.0000478173273731  0.3305047194890886  0.1668642493687029
  0.0000478173273731  0.6695420978382870  0.1668642493687029
  0.3304569021617156  0.3305047194890886  0.1668642493687029
  0.6694942805109141  0.6695420978382870  0.1668642493687029
  0.6666659999999993  0.3333330000000032  0.1622626210950716
  0.3333330000000032  0.6666659999999993  0.1720111986764452
  0.3333496805960686  0.1666748402980414  0.4036541452908416
  0.5000205129660616  0.0000410259321229  0.4037278834192165
  0.3333326666666636  0.6666663333333389  0.4036605527228074
  0.5000205129660616  0.4999784870339409  0.4037278834192165
  0.8333241597019621  0.1666748402980414  0.4036541452908416
  0.9999996666666675  0.9999993333333350  0.4035340451632741
  0.8333241597019621  0.6666493194039342  0.4036541452908416
 -0.0000420259321202  0.4999784870339409  0.4037278834192165
 
  0.00000000E+00  0.00000000E+00  0.00000000E+00
  0.00000000E+00  0.00000000E+00  0.00000000E+00
  0.00000000E+00  0.00000000E+00  0.00000000E+00
  0.00000000E+00  0.00000000E+00  0.00000000E+00
  0.00000000E+00  0.00000000E+00  0.00000000E+00
  0.00000000E+00  0.00000000E+00  0.00000000E+00
  0.00000000E+00  0.00000000E+00  0.00000000E+00
  0.00000000E+00  0.00000000E+00  0.00000000E+00
  0.00000000E+00  0.00000000E+00  0.00000000E+00
  0.00000000E+00  0.00000000E+00  0.00000000E+00
  0.00000000E+00  0.00000000E+00  0.00000000E+00
  0.00000000E+00  0.00000000E+00  0.00000000E+00
  0.00000000E+00  0.00000000E+00  0.00000000E+00
  0.00000000E+00  0.00000000E+00  0.00000000E+00
  0.00000000E+00  0.00000000E+00  0.00000000E+00
  0.00000000E+00  0.00000000E+00  0.00000000E+00
