Graphene-Borophene Bridge with lattice p
   1.00000000000000     
     4.3162706124616408    2.4919999999999995    0.0000000000000000
    -4.3162706124616408    2.4919999999999995    0.0000000000000000
     0.0000000000000000    0.0000000000000000   15.0000000000000000
   B    C 
     8     8
Direct
  0.6697443204177536 -0.0000117098272010  0.1096875212524702
  0.3303130354294535  0.0000113427886582  0.1097121227886850
  0.0000117098272010  0.3302546795822490  0.1096875212524702
 -0.0000113427886582  0.6696859645705491  0.1097121227886850
  0.3303235535290813  0.3303187670580425  0.1097163405201073
  0.6696802329419600  0.6696754464709213  0.1097163405201073
  0.6666570096440365  0.3333419903559659  0.1090692962835279
  0.3333249208922855  0.6666740791077170  0.1122433560742634
  0.2510837883955176  0.2515396536011736  0.4591994844641654
  0.4177698408744361  0.0827298517478922  0.4590454342940400
  0.2499642792724052  0.7500347207275972  0.4589417891868895
  0.4165759476245967  0.5834230523754057  0.4591108213309808
  0.7489852116393397  0.2510137883606627  0.4591509134583252
  0.9165086643163555  0.0834903356836470  0.4592953503604493
  0.7484593463988288  0.7489152116044848  0.4591994844641654
  0.9172691482521104  0.5822291591255664  0.4590454342940400
 
  0.00000000E+00  0.00000000E+00  0.00000000E+00
  0.00000000E+00  0.00000000E+00  0.00000000E+00
  0.00000000E+00  0.00000000E+00  0.00000000E+00
  0.00000000E+00  0.00000000E+00  0.00000000E+00
  0.00000000E+00  0.00000000E+00  0.00000000E+00
  0.00000000E+00  0.00000000E+00  0.00000000E+00
  0.00000000E+00  0.00000000E+00  0.00000000E+00
  0.00000000E+00  0.00000000E+00  0.00000000E+00
  0.00000000E+00  0.00000000E+00  0.00000000E+00
  0.00000000E+00  0.00000000E+00  0.00000000E+00
  0.00000000E+00  0.00000000E+00  0.00000000E+00
  0.00000000E+00  0.00000000E+00  0.00000000E+00
  0.00000000E+00  0.00000000E+00  0.00000000E+00
  0.00000000E+00  0.00000000E+00  0.00000000E+00
  0.00000000E+00  0.00000000E+00  0.00000000E+00
  0.00000000E+00  0.00000000E+00  0.00000000E+00
