Graphene-Borophene Bridge with lattice p
   1.00000000000000     
     4.3162706124616408    2.4919999999999995    0.0000000000000000
    -4.3162706124616408    2.4919999999999995    0.0000000000000000
     0.0000000000000000    0.0000000000000000   15.0000000000000000
   B    C 
     8     8
Direct
  0.6698385106009405 -0.0001195785881878  0.1609815843198185
  0.3303953808288525 -0.0000158470019580  0.1611341516056402
  0.0001195785881878  0.3301604893990620  0.1609815843198185
  0.0000158470019580  0.6696036191711502  0.1611341516056402
  0.3304474534566417  0.3304568496206883  0.1611597167127133
  0.6695421503793143  0.6695515465433609  0.1611597167127133
  0.6666449497682119  0.3333540502317905  0.1611186547296184
  0.3332855370487521  0.6667134629512506  0.1728383766814417
  0.2528129455900519  0.2530241917377317  0.4069412593756274
  0.4186279958364290  0.0824082572026879  0.4060532988451477
  0.2503684883247363  0.7496305116752661  0.4054586939431399
  0.4159794852356905  0.5840195147643118  0.4064247042234512
  0.7481935485979955  0.2518054514020069  0.4066603332996365
  0.9158222443493559  0.0841767556506467  0.4074925487381900
  0.7469748082622708  0.7471860544099506  0.4069412593756274
  0.9175907427973146  0.5813710041635736  0.4060532988451477
 
  0.00000000E+00  0.00000000E+00  0.00000000E+00
  0.00000000E+00  0.00000000E+00  0.00000000E+00
  0.00000000E+00  0.00000000E+00  0.00000000E+00
  0.00000000E+00  0.00000000E+00  0.00000000E+00
  0.00000000E+00  0.00000000E+00  0.00000000E+00
  0.00000000E+00  0.00000000E+00  0.00000000E+00
  0.00000000E+00  0.00000000E+00  0.00000000E+00
  0.00000000E+00  0.00000000E+00  0.00000000E+00
  0.00000000E+00  0.00000000E+00  0.00000000E+00
  0.00000000E+00  0.00000000E+00  0.00000000E+00
  0.00000000E+00  0.00000000E+00  0.00000000E+00
  0.00000000E+00  0.00000000E+00  0.00000000E+00
  0.00000000E+00  0.00000000E+00  0.00000000E+00
  0.00000000E+00  0.00000000E+00  0.00000000E+00
  0.00000000E+00  0.00000000E+00  0.00000000E+00
  0.00000000E+00  0.00000000E+00  0.00000000E+00
