Graphene-B4C3 Hollow 2 with lattice para
   1.00000000000000     
     4.1924289797204670    2.4205000000000001    0.0000000000000000
    -4.1924289797204670    2.4205000000000001    0.0000000000000000
     0.0000000000000000    0.0000000000000000   15.0000000000000000
   B    C 
     4    11
Direct
  0.0044230873636507  0.0029378973800392  0.0995514444065885
  0.3595770452291825  0.0029430153950604  0.1011056631550733
  0.0044321664939565  0.3580930870080540  0.1011078346607621
  0.6492773024363612  0.6477885025898225  0.1011127500599661
  0.3281457756334122  0.3266566167696511  0.1008672605989033
  0.6807193515012931  0.0029446750731823  0.1008639683509266
  0.0044318268846658  0.6792318649740293  0.1008639247679589
  0.1664315427947035  0.3331844122095508  0.3382475131197865
  0.3331155610243237  0.1665000409629132  0.3382492548350828
  0.1664705878574256  0.8332085594746379  0.3382515249252243
  0.3331185458588271  0.6665225519643030  0.3381405478817578
  0.6664532167491369  0.3331868670538436  0.3381405923694837
  0.8331387988116176  0.1665383797409231  0.3382508466515384
  0.6664569970592039  0.8331717802746154  0.3382470133221496
  0.8331021943022482  0.6665257491293852  0.3382458608948243
 
  0.00000000E+00  0.00000000E+00  0.00000000E+00
  0.00000000E+00  0.00000000E+00  0.00000000E+00
  0.00000000E+00  0.00000000E+00  0.00000000E+00
  0.00000000E+00  0.00000000E+00  0.00000000E+00
  0.00000000E+00  0.00000000E+00  0.00000000E+00
  0.00000000E+00  0.00000000E+00  0.00000000E+00
  0.00000000E+00  0.00000000E+00  0.00000000E+00
  0.00000000E+00  0.00000000E+00  0.00000000E+00
  0.00000000E+00  0.00000000E+00  0.00000000E+00
  0.00000000E+00  0.00000000E+00  0.00000000E+00
  0.00000000E+00  0.00000000E+00  0.00000000E+00
  0.00000000E+00  0.00000000E+00  0.00000000E+00
  0.00000000E+00  0.00000000E+00  0.00000000E+00
  0.00000000E+00  0.00000000E+00  0.00000000E+00
  0.00000000E+00  0.00000000E+00  0.00000000E+00
