Graphene-B4C3 Hollow 1 with lattice para
   1.00000000000000     
     4.2218738434491385    2.4375000000000000    0.0000000000000000
    -4.2218738434491385    2.4375000000000000    0.0000000000000000
     0.0000000000000000    0.0000000000000000   15.0000000000000000
   B    C 
     4    11
Direct
  0.0514866679494055 -0.0391158284933005  0.0994419607510381
  0.4065000206979854 -0.0391437393066783  0.0995734219058463
  0.0513827994508295  0.3155814293914179  0.0995527632707571
  0.6968532057594006  0.6055579815491315  0.0995655155352528
  0.3749470908333058  0.2837909309721556  0.0995212914661911
  0.7283669446047933 -0.0391656976024279  0.0995471626604257
  0.0513323560646793  0.6373519290682788  0.0995458879949970
  0.0696859093813769  0.4257531134323963  0.3393659468929360
  0.2363090805183514  0.2590280910879317  0.3394404970187183
  0.0697332454109253  0.9257887446861224  0.3393804202241381
  0.2363809609672197  0.7590015770954840  0.3393781825759186
  0.5697138194515771  0.4257317958978873  0.3393778133874299
  0.7362942829557425  0.2590258998674629  0.3392919430027654
  0.5696458529833708  0.9257186107625569  0.3394046395369213
  0.7362173185265848  0.7589736060360497  0.3393918871099855
 
  0.00000000E+00  0.00000000E+00  0.00000000E+00
  0.00000000E+00  0.00000000E+00  0.00000000E+00
  0.00000000E+00  0.00000000E+00  0.00000000E+00
  0.00000000E+00  0.00000000E+00  0.00000000E+00
  0.00000000E+00  0.00000000E+00  0.00000000E+00
  0.00000000E+00  0.00000000E+00  0.00000000E+00
  0.00000000E+00  0.00000000E+00  0.00000000E+00
  0.00000000E+00  0.00000000E+00  0.00000000E+00
  0.00000000E+00  0.00000000E+00  0.00000000E+00
  0.00000000E+00  0.00000000E+00  0.00000000E+00
  0.00000000E+00  0.00000000E+00  0.00000000E+00
  0.00000000E+00  0.00000000E+00  0.00000000E+00
  0.00000000E+00  0.00000000E+00  0.00000000E+00
  0.00000000E+00  0.00000000E+00  0.00000000E+00
  0.00000000E+00  0.00000000E+00  0.00000000E+00
