Graphene-B4C3 Bridge with lattice parame
   1.00000000000000     
     4.1958930813356048    2.4224999999999999    0.0000000000000000
    -4.1958930813356048    2.4224999999999999    0.0000000000000000
     0.0000000000000000    0.0000000000000000   15.0000000000000000
   B    C 
     4    11
Direct
  0.0193515690497700 -0.0117829105218396  0.1038729407332474
  0.3744759839540797 -0.0115367948821460  0.1006277085235915
  0.0192240680282766  0.3432139342703858  0.1005901326062185
  0.6645022437739420  0.6332748373180865  0.1006065260667903
  0.3431356830311260  0.3118513768498269  0.1008665192937147
  0.6959538930685092 -0.0115487404331600  0.1009335655892419
  0.0193061571294702  0.6646032589312497  0.1009000220887158
  0.0700196373799541  0.4293640905788928  0.3370753713030003
  0.2367076989833178  0.2627018313063500  0.3372156028956217
  0.0700163843782436  0.9293705673373264  0.3370748087128580
  0.2367339796774321  0.7626499752695300  0.3371383564991658
  0.5699744279279081  0.4293559558043467  0.3370818269045645
  0.7366471156711789  0.2626107775738843  0.3370899046926513
  0.5699673064959708  0.9293689384624875  0.3371739527330802
  0.7366111847841429  0.7626035688014756  0.3371320946908743
 
  0.00000000E+00  0.00000000E+00  0.00000000E+00
  0.00000000E+00  0.00000000E+00  0.00000000E+00
  0.00000000E+00  0.00000000E+00  0.00000000E+00
  0.00000000E+00  0.00000000E+00  0.00000000E+00
  0.00000000E+00  0.00000000E+00  0.00000000E+00
  0.00000000E+00  0.00000000E+00  0.00000000E+00
  0.00000000E+00  0.00000000E+00  0.00000000E+00
  0.00000000E+00  0.00000000E+00  0.00000000E+00
  0.00000000E+00  0.00000000E+00  0.00000000E+00
  0.00000000E+00  0.00000000E+00  0.00000000E+00
  0.00000000E+00  0.00000000E+00  0.00000000E+00
  0.00000000E+00  0.00000000E+00  0.00000000E+00
  0.00000000E+00  0.00000000E+00  0.00000000E+00
  0.00000000E+00  0.00000000E+00  0.00000000E+00
  0.00000000E+00  0.00000000E+00  0.00000000E+00
