Graphene-Borophene Hollow 1 with lattice
   1.00000000000000     
     4.3093424092313661    2.4880000000000000    0.0000000000000000
    -4.3093424092313661    2.4880000000000000    0.0000000000000000
     0.0000000000000000    0.0000000000000000   15.0000000000000000
   B    C 
     8     8
Direct
  0.6698190605207600 -0.0000082654001998  0.1095651729169552
  0.3302231994060759  0.0000138407675738  0.1095840655770298
  0.0000082654001998  0.3301799394792425  0.1095651729169552
 -0.0000138407675738  0.6697758005939266  0.1095840655770298
  0.3302399796216801  0.3302353980466975  0.1095937882252499
  0.6697636019533049  0.6697590203783225  0.1095937882252499
  0.6666593811515823  0.3333396188484202  0.1082310609162032
  0.3333266878715397  0.6666723121284628  0.1126876236735936
  0.2790181732850505  0.2236434932417489  0.4598866329863067
  0.4452266858019863  0.0547507247426576  0.4597117540302661
  0.2776046801375916  0.7223943198624109  0.4595822188878355
  0.4443404468162327  0.5556585531837699  0.4597727600993166
  0.7766299099393000  0.2233690900607025  0.4598366249400672
  0.9444318757356029  0.0555671242643996  0.4600068840113782
  0.7763555067582538  0.7209808267149520  0.4598866329863067
  0.9452482752573450  0.5547723141980164  0.4597117540302661
 
  0.00000000E+00  0.00000000E+00  0.00000000E+00
  0.00000000E+00  0.00000000E+00  0.00000000E+00
  0.00000000E+00  0.00000000E+00  0.00000000E+00
  0.00000000E+00  0.00000000E+00  0.00000000E+00
  0.00000000E+00  0.00000000E+00  0.00000000E+00
  0.00000000E+00  0.00000000E+00  0.00000000E+00
  0.00000000E+00  0.00000000E+00  0.00000000E+00
  0.00000000E+00  0.00000000E+00  0.00000000E+00
  0.00000000E+00  0.00000000E+00  0.00000000E+00
  0.00000000E+00  0.00000000E+00  0.00000000E+00
  0.00000000E+00  0.00000000E+00  0.00000000E+00
  0.00000000E+00  0.00000000E+00  0.00000000E+00
  0.00000000E+00  0.00000000E+00  0.00000000E+00
  0.00000000E+00  0.00000000E+00  0.00000000E+00
  0.00000000E+00  0.00000000E+00  0.00000000E+00
  0.00000000E+00  0.00000000E+00  0.00000000E+00
