Graphene-Borophene Hollow 1 with lattice
   1.00000000000000     
     4.3093424092313661    2.4880000000000000    0.0000000000000000
    -4.3093424092313661    2.4880000000000000    0.0000000000000000
     0.0000000000000000    0.0000000000000000   15.0000000000000000
   B    C 
     8     8
Direct
  0.6698329586810481 -0.0001158787836777  0.1599951559500660
  0.3303078348198669 -0.0000153044871259  0.1601120507346324
  0.0001158787836777  0.3301660413189544  0.1599951559500660
  0.0000153044871259  0.6696911651801355  0.1601120507346324
  0.3303896951024778  0.3304245154883712  0.1601715759703269
  0.6695744845116312  0.6696093048975248  0.1601715759703269
  0.6666525073777971  0.3333464926222053  0.1556503437750750
  0.3332923556193373  0.6667066443806652  0.1753804120602647
  0.2810932428940478  0.2251186703359217  0.4086555765370447
  0.4457934360617723  0.0540995599850319  0.4076455702440338
  0.2778136835880153  0.7221853164119871  0.4069030431806558
  0.4437357902124637  0.5562632097875390  0.4079928914206025
  0.7755116763520521  0.2244873236479503  0.4083678964831192
  0.9439732707185670  0.0560257292814356  0.4093455542080852
  0.7748803296640810  0.7189057571059547  0.4086555765370447
  0.9458994400149706  0.5542055639382304  0.4076455702440338
 
  0.00000000E+00  0.00000000E+00  0.00000000E+00
  0.00000000E+00  0.00000000E+00  0.00000000E+00
  0.00000000E+00  0.00000000E+00  0.00000000E+00
  0.00000000E+00  0.00000000E+00  0.00000000E+00
  0.00000000E+00  0.00000000E+00  0.00000000E+00
  0.00000000E+00  0.00000000E+00  0.00000000E+00
  0.00000000E+00  0.00000000E+00  0.00000000E+00
  0.00000000E+00  0.00000000E+00  0.00000000E+00
  0.00000000E+00  0.00000000E+00  0.00000000E+00
  0.00000000E+00  0.00000000E+00  0.00000000E+00
  0.00000000E+00  0.00000000E+00  0.00000000E+00
  0.00000000E+00  0.00000000E+00  0.00000000E+00
  0.00000000E+00  0.00000000E+00  0.00000000E+00
  0.00000000E+00  0.00000000E+00  0.00000000E+00
  0.00000000E+00  0.00000000E+00  0.00000000E+00
  0.00000000E+00  0.00000000E+00  0.00000000E+00
