BC3 with lattice parameter 5.169        
   1.00000000000000     
     4.4764850000000003    2.5844999999999998    0.0000000000000000
    -4.4764850000000003    2.5844999999999998    0.0000000000000000
     0.0000000000000000    0.0000000000000000   15.0000000000000000
   B    C 
     2     6
Direct
  0.3383342083085148  0.6691650870873559  0.2500000000000000
  0.6716663050998716  0.3358318919109030  0.2500000000000000
  0.1637461419152517  0.3199999952989740  0.2500000000000000
  0.3224999874058620  0.1612504898484560  0.2500000000000000
  0.1637544651909802  0.8437489095678523  0.2500000000000000
  0.8462439992204644  0.1612508524053674  0.2500000000000000
  0.6874995126827392  0.8437498905039302  0.2500000000000000
  0.8462513801763177  0.6849988833771603  0.2500000000000000
 
  0.00000000E+00  0.00000000E+00  0.00000000E+00
  0.00000000E+00  0.00000000E+00  0.00000000E+00
  0.00000000E+00  0.00000000E+00  0.00000000E+00
  0.00000000E+00  0.00000000E+00  0.00000000E+00
  0.00000000E+00  0.00000000E+00  0.00000000E+00
  0.00000000E+00  0.00000000E+00  0.00000000E+00
  0.00000000E+00  0.00000000E+00  0.00000000E+00
  0.00000000E+00  0.00000000E+00  0.00000000E+00
