BC3 with lattice parameter 5.169        
   1.00000000000000     
     4.4764850000000003    2.5844999999999998    0.0000000000000000
    -4.4764850000000003    2.5844999999999998    0.0000000000000000
     0.0000000000000000    0.0000000000000000   15.0000000000000000
   B    C 
     2     6
Direct
  0.3383341583786768  0.6691650944992787  0.2500000000000000
  0.6716663423561615  0.3358318919222020  0.2500000000000000
  0.1637460728857752  0.3199998991349088  0.2500000000000000
  0.3224998498246892  0.1612504860720412  0.2500000000000000
  0.1637544970339160  0.8437490346144672  0.2500000000000000
  0.8462439790831549  0.1612507300668674  0.2500000000000000
  0.6874996547034339  0.8437498869019296  0.2500000000000000
  0.8462514457341946  0.6849989767883041  0.2500000000000000
 
  0.00000000E+00  0.00000000E+00  0.00000000E+00
  0.00000000E+00  0.00000000E+00  0.00000000E+00
  0.00000000E+00  0.00000000E+00  0.00000000E+00
  0.00000000E+00  0.00000000E+00  0.00000000E+00
  0.00000000E+00  0.00000000E+00  0.00000000E+00
  0.00000000E+00  0.00000000E+00  0.00000000E+00
  0.00000000E+00  0.00000000E+00  0.00000000E+00
  0.00000000E+00  0.00000000E+00  0.00000000E+00
