Graphene-B4C3 Hollow 2 with lattice para
   1.00000000000000     
     4.1984911575469575    2.4239999999999995    0.0000000000000000
    -4.1984911575469575    2.4239999999999995    0.0000000000000000
     0.0000000000000000    0.0000000000000000   15.0000000000000000
   B    C 
     4    11
Direct
  0.0044015830915444  0.0029253700337316  0.0996564242751248
  0.3595536130898341  0.0029324779999092  0.1010230118451303
  0.0044108119054250  0.3580783247519541  0.1010250649273764
  0.6492602587873438  0.6477815057857561  0.1010286665257055
  0.3280658277703440  0.3265858637719143  0.1008000679859239
  0.6807582981682881  0.0029347477397400  0.1008015939954973
  0.0044143060986153  0.6792817328337887  0.1008022794011593
  0.1664489150514830  0.3331963484343916  0.3382892506294813
  0.3331359058863126  0.1665101449389971  0.3382910109401747
  0.1664878115953299  0.8332158664374799  0.3382934498142401
  0.3331386620923357  0.6665331181422600  0.3381824389182823
  0.6664727008318050  0.3331979971070405  0.3381824133311616
  0.8331547803038432  0.1665475977927131  0.3382928373862543
  0.6664722501001172  0.8331801230604192  0.3382892917163255
  0.8331182752273855  0.6665327811699163  0.3382881983081896
 
  0.00000000E+00  0.00000000E+00  0.00000000E+00
  0.00000000E+00  0.00000000E+00  0.00000000E+00
  0.00000000E+00  0.00000000E+00  0.00000000E+00
  0.00000000E+00  0.00000000E+00  0.00000000E+00
  0.00000000E+00  0.00000000E+00  0.00000000E+00
  0.00000000E+00  0.00000000E+00  0.00000000E+00
  0.00000000E+00  0.00000000E+00  0.00000000E+00
  0.00000000E+00  0.00000000E+00  0.00000000E+00
  0.00000000E+00  0.00000000E+00  0.00000000E+00
  0.00000000E+00  0.00000000E+00  0.00000000E+00
  0.00000000E+00  0.00000000E+00  0.00000000E+00
  0.00000000E+00  0.00000000E+00  0.00000000E+00
  0.00000000E+00  0.00000000E+00  0.00000000E+00
  0.00000000E+00  0.00000000E+00  0.00000000E+00
  0.00000000E+00  0.00000000E+00  0.00000000E+00
