BC3 with lattice parameter 5.169        
   1.00000000000000     
     4.4764850000000003    2.5844999999999998    0.0000000000000000
    -4.4764850000000003    2.5844999999999998    0.0000000000000000
     0.0000000000000000    0.0000000000000000   15.0000000000000000
   B    C 
     2     6
Direct
  0.3383345044708138  0.6691650837503839  0.2500000000000000
  0.6716661035384129  0.3358318446214937  0.2500000000000000
  0.1637459115287159  0.3199992739660623  0.2500000000000000
  0.3224997674445330  0.1612493815562761  0.2500000000000000
  0.1637529109366715  0.8437483224166969  0.2500000000000000
  0.8462455148119568  0.1612514369332826  0.2500000000000000
  0.6874997464035777  0.8437510615135081  0.2500000000000000
  0.8462515408653208  0.6849995952422956  0.2500000000000000
 
  0.00000000E+00  0.00000000E+00  0.00000000E+00
  0.00000000E+00  0.00000000E+00  0.00000000E+00
  0.00000000E+00  0.00000000E+00  0.00000000E+00
  0.00000000E+00  0.00000000E+00  0.00000000E+00
  0.00000000E+00  0.00000000E+00  0.00000000E+00
  0.00000000E+00  0.00000000E+00  0.00000000E+00
  0.00000000E+00  0.00000000E+00  0.00000000E+00
  0.00000000E+00  0.00000000E+00  0.00000000E+00
