k-points 23
0
Gamma
23    23    1
0    0    0