Graphene-B4C3 Top with lattice parameter
   1.00000000000000     
     4.1569219381653042    2.3999999999999995    0.0000000000000000
    -4.1569219381653042    2.3999999999999995    0.0000000000000000
     0.0000000000000000    0.0000000000000000   15.0000000000000000
   B    C 
     4    11
Direct
  0.0040400748769659  0.0026848151708434  0.1086556424692140
  0.3587836057379835  0.0029087128987935  0.0992382911338333
  0.0038142421445530  0.3572015330690898  0.0992385653131660
  0.6495213365456871  0.6479434636835731  0.0992358789537336
  0.3279672686711610  0.3263794683178393  0.1002842539135098
  0.6803398085993608  0.0029121239424295  0.1002819480779779
  0.0038014044136043  0.6787518317981297  0.1002786728700606
  0.0001461502580570  0.5000762239770379  0.3345414368506023
  0.1668086889312906  0.3334825679176223  0.3345835773226313
  0.0001282285804319  0.0000803226060643  0.3344896241059194
  0.1668477677674675  0.8334009905553224  0.3345870949955796
  0.5001356752885603  0.5001066386515248  0.3345443206019515
  0.6667945362766357  0.3334152211516119  0.3344304957915402
  0.5001044574106192  0.0000633425125515  0.3345397445870139
  0.6667274211643157  0.8333600770808920  0.3345831196799483
 
  0.00000000E+00  0.00000000E+00  0.00000000E+00
  0.00000000E+00  0.00000000E+00  0.00000000E+00
  0.00000000E+00  0.00000000E+00  0.00000000E+00
  0.00000000E+00  0.00000000E+00  0.00000000E+00
  0.00000000E+00  0.00000000E+00  0.00000000E+00
  0.00000000E+00  0.00000000E+00  0.00000000E+00
  0.00000000E+00  0.00000000E+00  0.00000000E+00
  0.00000000E+00  0.00000000E+00  0.00000000E+00
  0.00000000E+00  0.00000000E+00  0.00000000E+00
  0.00000000E+00  0.00000000E+00  0.00000000E+00
  0.00000000E+00  0.00000000E+00  0.00000000E+00
  0.00000000E+00  0.00000000E+00  0.00000000E+00
  0.00000000E+00  0.00000000E+00  0.00000000E+00
  0.00000000E+00  0.00000000E+00  0.00000000E+00
  0.00000000E+00  0.00000000E+00  0.00000000E+00
