Graphene-B4C3 Hollow 2 with lattice para
   1.00000000000000     
     4.1898309035091144    2.4190000000000000    0.0000000000000000
    -4.1898309035091144    2.4190000000000000    0.0000000000000000
     0.0000000000000000    0.0000000000000000   15.0000000000000000
   B    C 
     4    11
Direct
  0.0043948685628415  0.0029185667915888  0.0995531154453341
  0.3595461297595927  0.0029241210536137  0.1011896508706003
  0.0044025607192038  0.3580696606328739  0.1011917168615896
  0.6492536415252984  0.6477750160538480  0.1011961652090929
  0.3281479846871093  0.3266677660633735  0.1009326367982936
  0.6806599102793205  0.0029281562905087  0.1009366047816877
  0.0044079375568156  0.6791826673150790  0.1009379045153620
  0.1664561726230215  0.3332025813436998  0.3381895200192622
  0.3331417317307546  0.1665174032838483  0.3381912888028946
  0.1664941216298692  0.8332225588073382  0.3381938126508110
  0.3331443592830369  0.6665396139674384  0.3380812668732069
  0.6664786933273406  0.3332041483797355  0.3380812565671295
  0.8331611420680097  0.1665541327981263  0.3381931180354943
  0.6664790257480196  0.8331875759359548  0.3381895425173181
  0.8331257204997727  0.6665400312829850  0.3381884000519504
 
  0.00000000E+00  0.00000000E+00  0.00000000E+00
  0.00000000E+00  0.00000000E+00  0.00000000E+00
  0.00000000E+00  0.00000000E+00  0.00000000E+00
  0.00000000E+00  0.00000000E+00  0.00000000E+00
  0.00000000E+00  0.00000000E+00  0.00000000E+00
  0.00000000E+00  0.00000000E+00  0.00000000E+00
  0.00000000E+00  0.00000000E+00  0.00000000E+00
  0.00000000E+00  0.00000000E+00  0.00000000E+00
  0.00000000E+00  0.00000000E+00  0.00000000E+00
  0.00000000E+00  0.00000000E+00  0.00000000E+00
  0.00000000E+00  0.00000000E+00  0.00000000E+00
  0.00000000E+00  0.00000000E+00  0.00000000E+00
  0.00000000E+00  0.00000000E+00  0.00000000E+00
  0.00000000E+00  0.00000000E+00  0.00000000E+00
  0.00000000E+00  0.00000000E+00  0.00000000E+00
