Graphene-Borophene Bridge with lattice p
   1.00000000000000     
     4.3154045870578575    2.4914999999999998    0.0000000000000000
    -4.3154045870578575    2.4914999999999998    0.0000000000000000
     0.0000000000000000    0.0000000000000000   15.0000000000000000
   B    C 
     8     8
Direct
  0.6705680079188696 -0.0015414291654811  0.1671084514101491
  0.3323393316947228 -0.0013847491716578  0.1671670065493877
  0.0015414291654811  0.3294309920811332  0.1671084514101491
  0.0013847491716578  0.6676596683052791  0.1671670065493877
  0.3321839145134451  0.3293688711158456  0.1666018770206479
  0.6706301288841567  0.6678150854865573  0.1666018770206479
  0.6678146341212567  0.3321843658787453  0.1592377008769749
  0.3344648575938470  0.6655341424061557  0.1754619367649789
  0.2486157135012280  0.2513661420827570  0.4019953312533111
  0.4153220084867192  0.0847329880318024  0.4020236304823873
  0.2486243494868565  0.7513746505131461  0.4020485104678099
  0.4153286989550384  0.5846703010449649  0.4020836413441297
  0.7486254963353807  0.2513735036646221  0.4020078399196693
  0.9153174769525985  0.0846815230474046  0.4019011105280429
  0.7486328579172460  0.7513832864987751  0.4019953312533111
  0.9152660119682002  0.5846769915132829  0.4020236304823873
 
  0.00000000E+00  0.00000000E+00  0.00000000E+00
  0.00000000E+00  0.00000000E+00  0.00000000E+00
  0.00000000E+00  0.00000000E+00  0.00000000E+00
  0.00000000E+00  0.00000000E+00  0.00000000E+00
  0.00000000E+00  0.00000000E+00  0.00000000E+00
  0.00000000E+00  0.00000000E+00  0.00000000E+00
  0.00000000E+00  0.00000000E+00  0.00000000E+00
  0.00000000E+00  0.00000000E+00  0.00000000E+00
  0.00000000E+00  0.00000000E+00  0.00000000E+00
  0.00000000E+00  0.00000000E+00  0.00000000E+00
  0.00000000E+00  0.00000000E+00  0.00000000E+00
  0.00000000E+00  0.00000000E+00  0.00000000E+00
  0.00000000E+00  0.00000000E+00  0.00000000E+00
  0.00000000E+00  0.00000000E+00  0.00000000E+00
  0.00000000E+00  0.00000000E+00  0.00000000E+00
  0.00000000E+00  0.00000000E+00  0.00000000E+00
