Graphene-B4C3 Top with lattice parameter
   1.00000000000000     
     4.2010892337583119    2.4255000000000000    0.0000000000000000
    -4.2010892337583119    2.4255000000000000    0.0000000000000000
     0.0000000000000000    0.0000000000000000   15.0000000000000000
   B    C 
     4    11
Direct
  0.0040942034963820  0.0027027858085935  0.1012496872353974
  0.3593019845217869  0.0030511712029399  0.1008270932631851
  0.0037829603334163  0.3575994193886401  0.1008273121067857
  0.6492222289252277  0.6475364839011997  0.1008249443753574
  0.3277794264323494  0.3261258985357859  0.1008090171499721
  0.6807016790502350  0.0030076884263447  0.1008036209787579
  0.0038215235508353  0.6790433841780731  0.1007996218578382
  0.0001013859754761  0.5000495617848272  0.3346742669044387
  0.1667387556272628  0.3334094576447671  0.3347159267875012
  0.0000764088758361  0.0000456660900064  0.3346310046393894
  0.1667673250826699  0.8333772683706079  0.3347196460905729
  0.5000760440186489  0.5000701378802277  0.3346775674351348
  0.6667374361694570  0.3333796327921083  0.3345652637712024
  0.5000526085467367  0.0000204336223873  0.3346721400710140
  0.6667066960603731  0.8333483437068170  0.3347155540001343
 
  0.00000000E+00  0.00000000E+00  0.00000000E+00
  0.00000000E+00  0.00000000E+00  0.00000000E+00
  0.00000000E+00  0.00000000E+00  0.00000000E+00
  0.00000000E+00  0.00000000E+00  0.00000000E+00
  0.00000000E+00  0.00000000E+00  0.00000000E+00
  0.00000000E+00  0.00000000E+00  0.00000000E+00
  0.00000000E+00  0.00000000E+00  0.00000000E+00
  0.00000000E+00  0.00000000E+00  0.00000000E+00
  0.00000000E+00  0.00000000E+00  0.00000000E+00
  0.00000000E+00  0.00000000E+00  0.00000000E+00
  0.00000000E+00  0.00000000E+00  0.00000000E+00
  0.00000000E+00  0.00000000E+00  0.00000000E+00
  0.00000000E+00  0.00000000E+00  0.00000000E+00
  0.00000000E+00  0.00000000E+00  0.00000000E+00
  0.00000000E+00  0.00000000E+00  0.00000000E+00
