Graphene-B4C3 Bridge with lattice parame
   1.00000000000000     
     4.1880988527015450    2.4180000000000001    0.0000000000000000
    -4.1880988527015450    2.4180000000000001    0.0000000000000000
     0.0000000000000000    0.0000000000000000   15.0000000000000000
   B    C 
     4    11
Direct
  0.0054884549028193  0.0015374207933779  0.1017012768596655
  0.3606538221926892  0.0015750286659182  0.1013070478892554
  0.0055007330139448  0.3566394012385151  0.1015004820499235
  0.6505247407477944  0.6463055510287200  0.1014427570912075
  0.3293390882365751  0.3251748083030241  0.1013679807325118
  0.6818864520881499  0.0015001551910480  0.1014617022318971
  0.0055275936912451  0.6777395196350938  0.1014146705281843
  0.0821366990828984  0.4177816600892134  0.3368557707407994
  0.2487946597347216  0.2511081373869038  0.3370010485486867
  0.0821557436361604  0.9178215170169760  0.3369124257110453
  0.2488347901960384  0.7511446750424312  0.3368559059714524
  0.5821190239599990  0.4177800316680688  0.3368596512490655
  0.7487906160154991  0.2511148849791014  0.3368395806822539
  0.5821065491260473  0.9177690439232947  0.3369725295993078
  0.7487683667087395  0.7511088317050103  0.3368865034480792
 
  0.00000000E+00  0.00000000E+00  0.00000000E+00
  0.00000000E+00  0.00000000E+00  0.00000000E+00
  0.00000000E+00  0.00000000E+00  0.00000000E+00
  0.00000000E+00  0.00000000E+00  0.00000000E+00
  0.00000000E+00  0.00000000E+00  0.00000000E+00
  0.00000000E+00  0.00000000E+00  0.00000000E+00
  0.00000000E+00  0.00000000E+00  0.00000000E+00
  0.00000000E+00  0.00000000E+00  0.00000000E+00
  0.00000000E+00  0.00000000E+00  0.00000000E+00
  0.00000000E+00  0.00000000E+00  0.00000000E+00
  0.00000000E+00  0.00000000E+00  0.00000000E+00
  0.00000000E+00  0.00000000E+00  0.00000000E+00
  0.00000000E+00  0.00000000E+00  0.00000000E+00
  0.00000000E+00  0.00000000E+00  0.00000000E+00
  0.00000000E+00  0.00000000E+00  0.00000000E+00
