Graphene-BC3 Bridge with lattice paramet
   1.00000000000000     
     4.3604379080546485    2.5175000000000001    0.0000000000000000
    -4.3604379080546485    2.5175000000000001    0.0000000000000000
     0.0000000000000000    0.0000000000000000   15.0000000000000000
   B    C 
     2    14
Direct
  0.3216719974204811  0.6868197102938478  0.1007845883243487
  0.6549838900504681  0.3534985872973627  0.1005614020658838
  0.1479970066903056  0.3395741033937761  0.1005937056194980
  0.3075906223637438  0.1798732916175486  0.1004001445446101
  0.1479369342088554  0.8605497747132503  0.1003194377782776
  0.8286387900706086  0.1798496684308355  0.1006663960599620
  0.6689120369834162  0.8604985526871608  0.1006032365729401
  0.8286110930725804  0.7009080034072447  0.1004086344894165
  0.2667011267962074  0.2322361356973841  0.3258811099191357
  0.4333188790358957  0.0656803264217126  0.3258462609438721
  0.2666810171056154  0.7323316331656996  0.3255955103856877
  0.4334064795845234  0.5655994863494415  0.3257302036344526
  0.7667068552892218  0.2323013615886874  0.3257125759708571
  0.9334002976985820  0.0656061176721298  0.3258427415180984
  0.7667748192149453  0.7323111137468847  0.3258812515366853
  0.9333268210812559  0.5656874668503561  0.3258394673029310
 
  0.00000000E+00  0.00000000E+00  0.00000000E+00
  0.00000000E+00  0.00000000E+00  0.00000000E+00
  0.00000000E+00  0.00000000E+00  0.00000000E+00
  0.00000000E+00  0.00000000E+00  0.00000000E+00
  0.00000000E+00  0.00000000E+00  0.00000000E+00
  0.00000000E+00  0.00000000E+00  0.00000000E+00
  0.00000000E+00  0.00000000E+00  0.00000000E+00
  0.00000000E+00  0.00000000E+00  0.00000000E+00
  0.00000000E+00  0.00000000E+00  0.00000000E+00
  0.00000000E+00  0.00000000E+00  0.00000000E+00
  0.00000000E+00  0.00000000E+00  0.00000000E+00
  0.00000000E+00  0.00000000E+00  0.00000000E+00
  0.00000000E+00  0.00000000E+00  0.00000000E+00
  0.00000000E+00  0.00000000E+00  0.00000000E+00
  0.00000000E+00  0.00000000E+00  0.00000000E+00
  0.00000000E+00  0.00000000E+00  0.00000000E+00
