Graphene-BC3 Bridge with lattice paramet
   1.00000000000000     
     4.3604379080546485    2.5175000000000001    0.0000000000000000
    -4.3604379080546485    2.5175000000000001    0.0000000000000000
     0.0000000000000000    0.0000000000000000   15.0000000000000000
   B    C 
     2    14
Direct
  0.3382904819234405  0.6692069826443029  0.1002340416691532
  0.6716464563450363  0.3358564749719946  0.1001416416151483
  0.1646402193500156  0.3219330107471167  0.0999122192418005
  0.3242668399935759  0.1622455185838891  0.0999384490336160
  0.1645965655872723  0.8429095687056184  0.0999627751062190
  0.8452728543523347  0.1622279772365718  0.0998865262445352
  0.6855689373170251  0.8428663295767188  0.0999135628336301
  0.8452546210772895  0.6832374756464025  0.0999398430276530
  0.2500118297741198  0.2498275279110035  0.3264469584406928
  0.4166155400744122  0.0832592602109519  0.3263823251713486
  0.2499970463727324  0.7500015886527613  0.3262438606971345
  0.4167518587201767  0.5832432179098158  0.3262117256187043
  0.7500603051789066  0.2499325284603698  0.3262131558733025
  0.9167815859126109  0.0832123058636791  0.3264174949632015
  0.7501677067556829  0.7499853060568591  0.3264470605738782
  0.9167358179320738  0.5833802601552676  0.3263750265566391
 
  0.00000000E+00  0.00000000E+00  0.00000000E+00
  0.00000000E+00  0.00000000E+00  0.00000000E+00
  0.00000000E+00  0.00000000E+00  0.00000000E+00
  0.00000000E+00  0.00000000E+00  0.00000000E+00
  0.00000000E+00  0.00000000E+00  0.00000000E+00
  0.00000000E+00  0.00000000E+00  0.00000000E+00
  0.00000000E+00  0.00000000E+00  0.00000000E+00
  0.00000000E+00  0.00000000E+00  0.00000000E+00
  0.00000000E+00  0.00000000E+00  0.00000000E+00
  0.00000000E+00  0.00000000E+00  0.00000000E+00
  0.00000000E+00  0.00000000E+00  0.00000000E+00
  0.00000000E+00  0.00000000E+00  0.00000000E+00
  0.00000000E+00  0.00000000E+00  0.00000000E+00
  0.00000000E+00  0.00000000E+00  0.00000000E+00
  0.00000000E+00  0.00000000E+00  0.00000000E+00
  0.00000000E+00  0.00000000E+00  0.00000000E+00
