Graphene-B4C3 Hollow 1 with lattice para
   1.00000000000000     
     4.2054193607772321    2.4279999999999990    0.0000000000000000
    -4.2054193607772321    2.4279999999999990    0.0000000000000000
     0.0000000000000000    0.0000000000000000   15.0000000000000000
   B    C 
     4    11
Direct
  0.0041604983831945  0.0026832802757795  0.1196509940715375
  0.3562921611937097  0.0028232910368899  0.0976684181172175
  0.0042137776720496  0.3549637372075341  0.0976992579321562
  0.6520274331352598  0.6506144123161957  0.0976764560576237
  0.3262884212931668  0.3248385750940592  0.1003096094658286
  0.6822129769418314  0.0027877814614271  0.1003025332310732
  0.0041956941612477  0.6806465666272097  0.1002745208318169
  0.1110735775644639  0.3889410084951538  0.3372737717566721
  0.2778469169188482  0.2222836622955809  0.3373118762659613
  0.1112060223573604  0.8889565793852605  0.3372797329946882
  0.2778754667260172  0.7222201267960526  0.3372355784693383
  0.6110908181196638  0.3888619940255910  0.3372330402205283
  0.7777570094648911  0.2222458978589941  0.3372785446925716
  0.6110162233083596  0.8888625477631047  0.3373060015300909
  0.7775925583154868  0.7221489838056353  0.3372789976962168
 
  0.00000000E+00  0.00000000E+00  0.00000000E+00
  0.00000000E+00  0.00000000E+00  0.00000000E+00
  0.00000000E+00  0.00000000E+00  0.00000000E+00
  0.00000000E+00  0.00000000E+00  0.00000000E+00
  0.00000000E+00  0.00000000E+00  0.00000000E+00
  0.00000000E+00  0.00000000E+00  0.00000000E+00
  0.00000000E+00  0.00000000E+00  0.00000000E+00
  0.00000000E+00  0.00000000E+00  0.00000000E+00
  0.00000000E+00  0.00000000E+00  0.00000000E+00
  0.00000000E+00  0.00000000E+00  0.00000000E+00
  0.00000000E+00  0.00000000E+00  0.00000000E+00
  0.00000000E+00  0.00000000E+00  0.00000000E+00
  0.00000000E+00  0.00000000E+00  0.00000000E+00
  0.00000000E+00  0.00000000E+00  0.00000000E+00
  0.00000000E+00  0.00000000E+00  0.00000000E+00
