Graphene-B4C3 Hollow 1 with lattice para
   1.00000000000000     
     4.2054193607772321    2.4279999999999990    0.0000000000000000
    -4.2054193607772321    2.4279999999999990    0.0000000000000000
     0.0000000000000000    0.0000000000000000   15.0000000000000000
   B    C 
     4    11
Direct
  0.0044873825209513  0.0025693395076994  0.1041028471791394
  0.3592611848433880  0.0023680276380413  0.1007127106863850
  0.0047282493450581  0.3572621571626012  0.1010739136339920
  0.6500091675134309  0.6475787833990635  0.1009576117606554
  0.3286074877170926  0.3263925555890373  0.1014971874597909
  0.6805243227318970  0.0022483002400246  0.1018002421687715
  0.0045583100956203  0.6785142221899416  0.1015355100970268
  0.1107182418393033  0.3892065475991547  0.3374751869140924
  0.2774156473630900  0.2225780381669289  0.3375871820459849
  0.1106966552514998  0.8891758884506532  0.3375711138435133
  0.2774336228871243  0.7224706078448072  0.3374599829304289
  0.6107727224125656  0.3892006205270472  0.3374764302235498
  0.7773938672865598  0.2224261054148354  0.3374661711776998
  0.6108085167750564  0.8893611600097818  0.3375541522664673
  0.7774341769729131  0.7225260907048505  0.3375090909458238
 
  0.00000000E+00  0.00000000E+00  0.00000000E+00
  0.00000000E+00  0.00000000E+00  0.00000000E+00
  0.00000000E+00  0.00000000E+00  0.00000000E+00
  0.00000000E+00  0.00000000E+00  0.00000000E+00
  0.00000000E+00  0.00000000E+00  0.00000000E+00
  0.00000000E+00  0.00000000E+00  0.00000000E+00
  0.00000000E+00  0.00000000E+00  0.00000000E+00
  0.00000000E+00  0.00000000E+00  0.00000000E+00
  0.00000000E+00  0.00000000E+00  0.00000000E+00
  0.00000000E+00  0.00000000E+00  0.00000000E+00
  0.00000000E+00  0.00000000E+00  0.00000000E+00
  0.00000000E+00  0.00000000E+00  0.00000000E+00
  0.00000000E+00  0.00000000E+00  0.00000000E+00
  0.00000000E+00  0.00000000E+00  0.00000000E+00
  0.00000000E+00  0.00000000E+00  0.00000000E+00
