Graphene-Borophene Hollow_1 with lattice
   1.00000000000000     
     4.3119404854427197    2.4895000000000000    0.0000000000000000
    -4.3119404854427197    2.4895000000000000    0.0000000000000000
     0.0000000000000000    0.0000000000000000   15.0000000000000000
   B    C 
     8     8
Direct
  0.6797436445649581  0.9889759804677638  0.0993808702881509
  0.3418676098868048  0.9890587671678901  0.0997080362871259
  0.0110240195322362  0.3202553554350445  0.0993808702881509
  0.0109412328321099  0.6581313901131978  0.0997080362871259
  0.3418445129190673  0.3201138678239346  0.0987786681463234
  0.6798851321760679  0.6581544870809353  0.0987786681463234
  0.6772101374524908  0.3227888625475117  0.0891039104579221
  0.3440090258611477  0.6559899741388548  0.1106419851545084
  0.2670418761436721  0.2330491003774497  0.3361333160756814
  0.4336048116673581  0.0663884403607540  0.3361885383423555
  0.2669729672759829  0.7330260327240197  0.3362962244390033
  0.4336236910309452  0.5663753089690573  0.3362165154703831
  0.7669581486872303  0.2330408513127722  0.3361169129212840
  0.9335946195970308  0.0664043804029717  0.3360455932776247
  0.7669498996225528  0.7329571238563304  0.3361333160756814
  0.9336105596392485  0.5663941883326444  0.3361885383423555
 
  0.00000000E+00  0.00000000E+00  0.00000000E+00
  0.00000000E+00  0.00000000E+00  0.00000000E+00
  0.00000000E+00  0.00000000E+00  0.00000000E+00
  0.00000000E+00  0.00000000E+00  0.00000000E+00
  0.00000000E+00  0.00000000E+00  0.00000000E+00
  0.00000000E+00  0.00000000E+00  0.00000000E+00
  0.00000000E+00  0.00000000E+00  0.00000000E+00
  0.00000000E+00  0.00000000E+00  0.00000000E+00
  0.00000000E+00  0.00000000E+00  0.00000000E+00
  0.00000000E+00  0.00000000E+00  0.00000000E+00
  0.00000000E+00  0.00000000E+00  0.00000000E+00
  0.00000000E+00  0.00000000E+00  0.00000000E+00
  0.00000000E+00  0.00000000E+00  0.00000000E+00
  0.00000000E+00  0.00000000E+00  0.00000000E+00
  0.00000000E+00  0.00000000E+00  0.00000000E+00
  0.00000000E+00  0.00000000E+00  0.00000000E+00
