Graphene-Borophene Hollow_1 with lattice
   1.00000000000000     
     4.3119404854427197    2.4895000000000000    0.0000000000000000
    -4.3119404854427197    2.4895000000000000    0.0000000000000000
     0.0000000000000000    0.0000000000000000   15.0000000000000000
   B    C 
     8     8
Direct
  0.6797436445649612 -0.0110240195322354  0.0993808702881524
  0.3418676098868047 -0.0109412328321126  0.0997080362871282
  0.0110240195322354  0.3202553554350416  0.0993808702881524
  0.0109412328321126  0.6581313901131975  0.0997080362871282
  0.3418445129190688  0.3201138678239369  0.0987786681463254
  0.6798851321760653  0.6581544870809339  0.0987786681463254
  0.6772101374524944  0.3227888625475083  0.0891039104579253
  0.3440090258611508  0.6559899741388520  0.1106419851545100
  0.2670418761436754  0.2330491003774465  0.3361333160756781
  0.4336048116673616  0.0663884403607546  0.3361885383423541
  0.2669729672759850  0.7330260327240177  0.3362962244390003
  0.4336236910309487  0.5663753089690539  0.3362165154703857
  0.7669581486872322  0.2330408513127705  0.3361169129212840
  0.9335946195970315  0.0664043804029706  0.3360455932776243
  0.7669498996225559  0.7329571238563273  0.3361333160756781
  0.9336105596392485  0.5663941883326411  0.3361885383423541
 
  0.00000000E+00  0.00000000E+00  0.00000000E+00
  0.00000000E+00  0.00000000E+00  0.00000000E+00
  0.00000000E+00  0.00000000E+00  0.00000000E+00
  0.00000000E+00  0.00000000E+00  0.00000000E+00
  0.00000000E+00  0.00000000E+00  0.00000000E+00
  0.00000000E+00  0.00000000E+00  0.00000000E+00
  0.00000000E+00  0.00000000E+00  0.00000000E+00
  0.00000000E+00  0.00000000E+00  0.00000000E+00
  0.00000000E+00  0.00000000E+00  0.00000000E+00
  0.00000000E+00  0.00000000E+00  0.00000000E+00
  0.00000000E+00  0.00000000E+00  0.00000000E+00
  0.00000000E+00  0.00000000E+00  0.00000000E+00
  0.00000000E+00  0.00000000E+00  0.00000000E+00
  0.00000000E+00  0.00000000E+00  0.00000000E+00
  0.00000000E+00  0.00000000E+00  0.00000000E+00
  0.00000000E+00  0.00000000E+00  0.00000000E+00
