B4C3 with lattice parameter 4.670       
   1.00000000000000     
     4.0443389999999999    2.3350000000000000    0.0000000000000000
    -4.0443389999999999    2.3350000000000000    0.0000000000000000
     0.0000000000000000    0.0000000000000000   15.0000000000000000
   B    C 
     4     3
Direct
  0.0041553768401790  0.0027087057463962  0.1217671775780166
  0.3566235465107314  0.0028066417744317  0.0971514606333847
  0.0041956370142380  0.3551945188461408  0.0971701328667641
  0.6517535021698300  0.6503784600073010  0.0970794556190069
  0.3281085942919017  0.3267050818549620  0.1001765894657553
  0.6802679275022121  0.0028147246923417  0.1001534853034548
  0.0041934156709052  0.6788298670784270  0.1001476985336287
 
  0.00000000E+00  0.00000000E+00  0.00000000E+00
  0.00000000E+00  0.00000000E+00  0.00000000E+00
  0.00000000E+00  0.00000000E+00  0.00000000E+00
  0.00000000E+00  0.00000000E+00  0.00000000E+00
  0.00000000E+00  0.00000000E+00  0.00000000E+00
  0.00000000E+00  0.00000000E+00  0.00000000E+00
  0.00000000E+00  0.00000000E+00  0.00000000E+00
