Graphene-BC3 Top with lattice parameter 
   1.00000000000000     
     4.3474475269978807    2.5099999999999993    0.0000000000000000
    -4.3474475269978807    2.5099999999999993    0.0000000000000000
     0.0000000000000000    0.0000000000000000   15.0000000000000000
   B    C 
     2    14
Direct
  0.3383344271495560  0.6691678841067079  0.1002427226815934
  0.6716673059181965  0.3358339525162731  0.1002427186490727
  0.1647752556499125  0.3220446805691777  0.0999178736853139
  0.3245472069996126  0.1622731541928220  0.0999168726866873
  0.1647763386749159  0.8427310116187999  0.0999178743671362
  0.8452334646260343  0.1622726793750485  0.0999194513470198
  0.6854620510646000  0.8427301601903148  0.0999200641507024
  0.8452351633848413  0.6829596930193704  0.0999194458430534
  0.1665701159489620  0.3331465221724132  0.3288754975169097
  0.3331443078256804  0.1665718959830804  0.3288766059335619
  0.1665701262629113  0.8334233092944445  0.3288754967976338
  0.3333272956010173  0.6666633954064124  0.3285786758952731
  0.6666606085258938  0.3333301650368187  0.3285786738120695
  0.8334211606611789  0.1665723998433882  0.3288731037901344
  0.6668460214074512  0.8334228716587254  0.3288718198048109
  0.8334211502992556  0.6668482250162121  0.3288731030390474
 
  0.00000000E+00  0.00000000E+00  0.00000000E+00
  0.00000000E+00  0.00000000E+00  0.00000000E+00
  0.00000000E+00  0.00000000E+00  0.00000000E+00
  0.00000000E+00  0.00000000E+00  0.00000000E+00
  0.00000000E+00  0.00000000E+00  0.00000000E+00
  0.00000000E+00  0.00000000E+00  0.00000000E+00
  0.00000000E+00  0.00000000E+00  0.00000000E+00
  0.00000000E+00  0.00000000E+00  0.00000000E+00
  0.00000000E+00  0.00000000E+00  0.00000000E+00
  0.00000000E+00  0.00000000E+00  0.00000000E+00
  0.00000000E+00  0.00000000E+00  0.00000000E+00
  0.00000000E+00  0.00000000E+00  0.00000000E+00
  0.00000000E+00  0.00000000E+00  0.00000000E+00
  0.00000000E+00  0.00000000E+00  0.00000000E+00
  0.00000000E+00  0.00000000E+00  0.00000000E+00
  0.00000000E+00  0.00000000E+00  0.00000000E+00
