Graphene-B4C3 Bridge with lattice parame
   1.00000000000000     
     4.2132135894112936    2.4325000000000001    0.0000000000000000
    -4.2132135894112936    2.4325000000000001    0.0000000000000000
     0.0000000000000000    0.0000000000000000   15.0000000000000000
   B    C 
     4    11
Direct
  0.0291549171296791 -0.0207676857709775  0.1030828872082825
  0.3842632023323900 -0.0207096035635590  0.0996197927293524
  0.0292366381617422  0.3341659093182532  0.0999761829216138
  0.6744775678317136  0.6238337128774138  0.0998592338253230
  0.3528371627176671  0.3024362503909868  0.0999974490051172
  0.7058681581483084 -0.0207932564191177  0.1001662251633745
  0.0287048183294018  0.6554564308870841  0.1000958204436981
  0.0614501215280816  0.4373691238804029  0.3378336770599266
  0.2281198933841683  0.2708254609595332  0.3378707698628207
  0.0614293335070865  0.9373516888529715  0.3377678579990296
  0.2280995579787972  0.7707251319095551  0.3378076072777889
  0.5614161544872256  0.4373549561082272  0.3378166605878403
  0.7280720180595116  0.2707143223002239  0.3377606071583505
  0.5614416327483805  0.9374196124206783  0.3379331591519205
  0.7280561569891684  0.7707186125150199  0.3377914029388973
 
  0.00000000E+00  0.00000000E+00  0.00000000E+00
  0.00000000E+00  0.00000000E+00  0.00000000E+00
  0.00000000E+00  0.00000000E+00  0.00000000E+00
  0.00000000E+00  0.00000000E+00  0.00000000E+00
  0.00000000E+00  0.00000000E+00  0.00000000E+00
  0.00000000E+00  0.00000000E+00  0.00000000E+00
  0.00000000E+00  0.00000000E+00  0.00000000E+00
  0.00000000E+00  0.00000000E+00  0.00000000E+00
  0.00000000E+00  0.00000000E+00  0.00000000E+00
  0.00000000E+00  0.00000000E+00  0.00000000E+00
  0.00000000E+00  0.00000000E+00  0.00000000E+00
  0.00000000E+00  0.00000000E+00  0.00000000E+00
  0.00000000E+00  0.00000000E+00  0.00000000E+00
  0.00000000E+00  0.00000000E+00  0.00000000E+00
  0.00000000E+00  0.00000000E+00  0.00000000E+00
