Graphene-BC3 Bridge with lattice paramet
   1.00000000000000     
     4.3517776540168045    2.5125000000000002    0.0000000000000000
    -4.3517776540168045    2.5125000000000002    0.0000000000000000
     0.0000000000000000    0.0000000000000000   15.0000000000000000
   B    C 
     2    14
Direct
  0.3029567986634907  0.7064366795576432  0.1006827226027545
  0.6362990379901200  0.3731019625673741  0.1003740169469812
  0.1293811978484392  0.3592594627218696  0.1006310636755510
  0.2890415506581558  0.1994844871217009  0.1002183989964604
  0.1293650316074308  0.8800375157930872  0.0999772899223991
  0.8099167558636782  0.1994705495885114  0.1008051469512630
  0.6501302770052823  0.8800137793786257  0.1005519004812630
  0.8099061417904950  0.7203515058611785  0.1001366625414912
  0.2853880425306093  0.2127253629410703  0.3259742350407315
  0.4520606550577449  0.0461359710106059  0.3259427063611938
  0.2853645581780847  0.7127364961842657  0.3256676310407149
  0.4520802372022067  0.5460178148843586  0.3259174339999930
  0.7853691290529144  0.2127378241171043  0.3259374637459628
  0.9520489985691537  0.0460577504960315  0.3259407392149652
  0.7853806479417494  0.7127169464124468  0.3259683127530807
  0.9519696067071513  0.5460412246974490  0.3259409423918516
 
  0.00000000E+00  0.00000000E+00  0.00000000E+00
  0.00000000E+00  0.00000000E+00  0.00000000E+00
  0.00000000E+00  0.00000000E+00  0.00000000E+00
  0.00000000E+00  0.00000000E+00  0.00000000E+00
  0.00000000E+00  0.00000000E+00  0.00000000E+00
  0.00000000E+00  0.00000000E+00  0.00000000E+00
  0.00000000E+00  0.00000000E+00  0.00000000E+00
  0.00000000E+00  0.00000000E+00  0.00000000E+00
  0.00000000E+00  0.00000000E+00  0.00000000E+00
  0.00000000E+00  0.00000000E+00  0.00000000E+00
  0.00000000E+00  0.00000000E+00  0.00000000E+00
  0.00000000E+00  0.00000000E+00  0.00000000E+00
  0.00000000E+00  0.00000000E+00  0.00000000E+00
  0.00000000E+00  0.00000000E+00  0.00000000E+00
  0.00000000E+00  0.00000000E+00  0.00000000E+00
  0.00000000E+00  0.00000000E+00  0.00000000E+00
