Graphene-B4C3 Hollow 2 with lattice para
   1.00000000000000     
     4.2218738434491385    2.4375000000000000    0.0000000000000000
    -4.2218738434491385    2.4375000000000000    0.0000000000000000
     0.0000000000000000    0.0000000000000000   15.0000000000000000
   B    C 
     4    11
Direct
  0.0044277989950767  0.0029403977439343  0.0997934693677587
  0.3595597021444324  0.0029462396970883  0.1007303456702201
  0.0044373930964345  0.3580753547189385  0.1007325549277831
  0.6492988755924689  0.6478077487128696  0.1007373402937429
  0.3278458606987575  0.3263546392936544  0.1005619510343946
  0.6810465570244209  0.0029501815067823  0.1005579244894938
  0.0044403824734176  0.6795571672512057  0.1005573076025391
  0.1664252999093132  0.3331790958515241  0.3384721004666223
  0.3331077524114321  0.1664921524520311  0.3384738170821413
  0.1664724466974837  0.8332135384661765  0.3384758682718489
  0.3331069387422418  0.6665133936050586  0.3383680236812648
  0.6664401057421016  0.3331786388644055  0.3383680258230331
  0.8331416529312266  0.1665431916338855  0.3384752428629095
  0.6664465299266270  0.8331638921565135  0.3384715580498400
  0.8330967036145726  0.6665183680459428  0.3384704703764344
 
  0.00000000E+00  0.00000000E+00  0.00000000E+00
  0.00000000E+00  0.00000000E+00  0.00000000E+00
  0.00000000E+00  0.00000000E+00  0.00000000E+00
  0.00000000E+00  0.00000000E+00  0.00000000E+00
  0.00000000E+00  0.00000000E+00  0.00000000E+00
  0.00000000E+00  0.00000000E+00  0.00000000E+00
  0.00000000E+00  0.00000000E+00  0.00000000E+00
  0.00000000E+00  0.00000000E+00  0.00000000E+00
  0.00000000E+00  0.00000000E+00  0.00000000E+00
  0.00000000E+00  0.00000000E+00  0.00000000E+00
  0.00000000E+00  0.00000000E+00  0.00000000E+00
  0.00000000E+00  0.00000000E+00  0.00000000E+00
  0.00000000E+00  0.00000000E+00  0.00000000E+00
  0.00000000E+00  0.00000000E+00  0.00000000E+00
  0.00000000E+00  0.00000000E+00  0.00000000E+00
