BC3 with lattice parameter 5.169        
   1.00000000000000     
     4.4764850000000003    2.5844999999999998    0.0000000000000000
    -4.4764850000000003    2.5844999999999998    0.0000000000000000
     0.0000000000000000    0.0000000000000000   15.0000000000000000
   B    C 
     2     6
Direct
  0.3383342432895624  0.6691651043377662  0.2500000000000000
  0.6716662938710243  0.3358318637639009  0.2500000000000000
  0.1637458322699462  0.3199992230027955  0.2500000000000000
  0.3224993167243616  0.1612500399494770  0.2500000000000000
  0.1637539378993089  0.8437491321486940  0.2500000000000000
  0.8462445139710366  0.1612506388306871  0.2500000000000000
  0.6875002055773367  0.8437503664754779  0.2500000000000000
  0.8462516563974254  0.6849996314912004  0.2500000000000000
 
  0.00000000E+00  0.00000000E+00  0.00000000E+00
  0.00000000E+00  0.00000000E+00  0.00000000E+00
  0.00000000E+00  0.00000000E+00  0.00000000E+00
  0.00000000E+00  0.00000000E+00  0.00000000E+00
  0.00000000E+00  0.00000000E+00  0.00000000E+00
  0.00000000E+00  0.00000000E+00  0.00000000E+00
  0.00000000E+00  0.00000000E+00  0.00000000E+00
  0.00000000E+00  0.00000000E+00  0.00000000E+00
