k-points 29
0
Gamma
29    29    1
0    0    0