Graphene-B4C3 Hollow 1 with lattice para
   1.00000000000000     
     4.1396014300896162    2.3899999999999997    0.0000000000000000
    -4.1396014300896162    2.3899999999999997    0.0000000000000000
     0.0000000000000000    0.0000000000000000   15.0000000000000000
   B    C 
     4    11
Direct
  0.0282468802830373 -0.0185448717401374  0.1014356163273922
  0.3831160624297921 -0.0190101823130570  0.1013557346394814
  0.0282761441074753  0.3364565084271328  0.1017771496103174
  0.6735536543053057  0.6258985671567902  0.1016808609573771
  0.3528120359769152  0.3051827331507588  0.1012626856065613
  0.7043068286119865 -0.0187764528399781  0.1018313667081836
  0.0283544737036699  0.6566930945268395  0.1013186898547057
  0.0901070229598755  0.4078059927438088  0.3376220189199733
  0.2566253636298304  0.2412701318639895  0.3377889634533287
  0.0899509429783832  0.9078099598839143  0.3376768202975777
  0.2567055030323660  0.7412566095270402  0.3374894032700254
  0.5898663399143185  0.4078115878035721  0.3375307087589071
  0.7564576228876144  0.2410253676612550  0.3375685971319610
  0.5898818416838421  0.9078484427013650  0.3378253424490046
  0.7565888390511376  0.7411509558911741  0.3376153753485248
 
  0.00000000E+00  0.00000000E+00  0.00000000E+00
  0.00000000E+00  0.00000000E+00  0.00000000E+00
  0.00000000E+00  0.00000000E+00  0.00000000E+00
  0.00000000E+00  0.00000000E+00  0.00000000E+00
  0.00000000E+00  0.00000000E+00  0.00000000E+00
  0.00000000E+00  0.00000000E+00  0.00000000E+00
  0.00000000E+00  0.00000000E+00  0.00000000E+00
  0.00000000E+00  0.00000000E+00  0.00000000E+00
  0.00000000E+00  0.00000000E+00  0.00000000E+00
  0.00000000E+00  0.00000000E+00  0.00000000E+00
  0.00000000E+00  0.00000000E+00  0.00000000E+00
  0.00000000E+00  0.00000000E+00  0.00000000E+00
  0.00000000E+00  0.00000000E+00  0.00000000E+00
  0.00000000E+00  0.00000000E+00  0.00000000E+00
  0.00000000E+00  0.00000000E+00  0.00000000E+00
