Graphene-B4C3 Top with lattice parameter
   1.00000000000000     
     4.1785725732599168    2.4125000000000001    0.0000000000000000
    -4.1785725732599168    2.4125000000000001    0.0000000000000000
     0.0000000000000000    0.0000000000000000   15.0000000000000000
   B    C 
     4    11
Direct
  0.0040081808516392  0.0026731068773813  0.1030640919851138
  0.3591614880702683  0.0029253939033127  0.1002255249804556
  0.0037460403389411  0.3575577778536476  0.1002268872370341
  0.6491076642537505  0.6475150321091151  0.1002214977470829
  0.3279005564823819  0.3263036413479217  0.1004869720475033
  0.6803628531509743  0.0029268566811092  0.1004875786580415
  0.0037425985386341  0.6787628137137457  0.1004853983911367
  0.0001756371020634  0.5000894471420652  0.3347935352075289
  0.1668307782638938  0.3334807453860330  0.3348298519217167
  0.0001575416532494  0.0000954187801604  0.3347491271458893
  0.1668708767479419  0.8334242781091300  0.3348342978771712
  0.5001661119931883  0.5001231315261970  0.3347962227637605
  0.6668253337406719  0.3334302104299680  0.3346888774859205
  0.5001310083816596  0.0000772912531311  0.3347924833498500
  0.6667739970974345  0.8333821882204073  0.3348303198684758
 
  0.00000000E+00  0.00000000E+00  0.00000000E+00
  0.00000000E+00  0.00000000E+00  0.00000000E+00
  0.00000000E+00  0.00000000E+00  0.00000000E+00
  0.00000000E+00  0.00000000E+00  0.00000000E+00
  0.00000000E+00  0.00000000E+00  0.00000000E+00
  0.00000000E+00  0.00000000E+00  0.00000000E+00
  0.00000000E+00  0.00000000E+00  0.00000000E+00
  0.00000000E+00  0.00000000E+00  0.00000000E+00
  0.00000000E+00  0.00000000E+00  0.00000000E+00
  0.00000000E+00  0.00000000E+00  0.00000000E+00
  0.00000000E+00  0.00000000E+00  0.00000000E+00
  0.00000000E+00  0.00000000E+00  0.00000000E+00
  0.00000000E+00  0.00000000E+00  0.00000000E+00
  0.00000000E+00  0.00000000E+00  0.00000000E+00
  0.00000000E+00  0.00000000E+00  0.00000000E+00
