Graphene-B4C3 Bridge with lattice parame
   1.00000000000000     
     4.2028212845658803    2.4264999999999999    0.0000000000000000
    -4.2028212845658803    2.4264999999999999    0.0000000000000000
     0.0000000000000000    0.0000000000000000   15.0000000000000000
   B    C 
     4    11
Direct
  0.0283256908659897 -0.0201523888462006  0.1006475723325903
  0.3834612532482497 -0.0199719929647326  0.1021678870964636
  0.0282178144044349  0.3347965773389405  0.1022312213060170
  0.6735617462891733  0.6246635447859202  0.1022192971882208
  0.3520522681641587  0.3032407719177965  0.1018904528956347
  0.7049849466771139 -0.0200573204271549  0.1019645841356951
  0.0281353170445393  0.6561609586046251  0.1019711146526422
  0.0621939540369281  0.4367540744292168  0.3365345703922984
  0.2288281455853329  0.2701477537759107  0.3365681937829379
  0.0621664414689534  0.9367665079356201  0.3364643168417706
  0.2288694105838628  0.7701025192472868  0.3365564700658660
  0.5621461896673670  0.4367472137746933  0.3365289454814751
  0.7287880047586318  0.2700844417734543  0.3365019519759682
  0.5621201920397650  0.9367527914790916  0.3366230744649656
  0.7287759584988213  0.7700652138422288  0.3365096807207910
 
  0.00000000E+00  0.00000000E+00  0.00000000E+00
  0.00000000E+00  0.00000000E+00  0.00000000E+00
  0.00000000E+00  0.00000000E+00  0.00000000E+00
  0.00000000E+00  0.00000000E+00  0.00000000E+00
  0.00000000E+00  0.00000000E+00  0.00000000E+00
  0.00000000E+00  0.00000000E+00  0.00000000E+00
  0.00000000E+00  0.00000000E+00  0.00000000E+00
  0.00000000E+00  0.00000000E+00  0.00000000E+00
  0.00000000E+00  0.00000000E+00  0.00000000E+00
  0.00000000E+00  0.00000000E+00  0.00000000E+00
  0.00000000E+00  0.00000000E+00  0.00000000E+00
  0.00000000E+00  0.00000000E+00  0.00000000E+00
  0.00000000E+00  0.00000000E+00  0.00000000E+00
  0.00000000E+00  0.00000000E+00  0.00000000E+00
  0.00000000E+00  0.00000000E+00  0.00000000E+00
