Graphene-BC3 Top with lattice parameter 
   1.00000000000000     
     4.3950789242060262    2.5375000000000001    0.0000000000000000
    -4.3950789242060262    2.5375000000000001    0.0000000000000000
     0.0000000000000000    0.0000000000000000   15.0000000000000000
   B    C 
     2    14
Direct
  0.3384138101146049  0.6692065489386635  0.0999610858111203
  0.6717464663760441  0.3358726082694474  0.0999611248147027
  0.1645099638049181  0.3213896461844891  0.0996391061102495
  0.3239349460012575  0.1619640638000690  0.0996317439454975
  0.1645057549473134  0.8431142557196638  0.0996394169064773
  0.8456638935255244  0.1619642166622628  0.0996541111533239
  0.6862439530578254  0.8431228226759069  0.0996614298202523
  0.8456601090497583  0.6836979616505660  0.0996540964223357
  0.1664792258258061  0.3330864147997825  0.3291498635185090
  0.3330430721179484  0.1665220565903000  0.3291510693990823
  0.1664792511120207  0.8333934147785713  0.3291498663746047
  0.3332462255128220  0.6666236570031239  0.3288533294031787
  0.6665797711464931  0.3332901873601533  0.3288533318132989
  0.8333501672776302  0.1665226698410217  0.3291472702779439
  0.6667852197581927  0.8333929305556761  0.3291458794488849
  0.8333501703718599  0.6668285451703115  0.3291472747805588
 
  0.00000000E+00  0.00000000E+00  0.00000000E+00
  0.00000000E+00  0.00000000E+00  0.00000000E+00
  0.00000000E+00  0.00000000E+00  0.00000000E+00
  0.00000000E+00  0.00000000E+00  0.00000000E+00
  0.00000000E+00  0.00000000E+00  0.00000000E+00
  0.00000000E+00  0.00000000E+00  0.00000000E+00
  0.00000000E+00  0.00000000E+00  0.00000000E+00
  0.00000000E+00  0.00000000E+00  0.00000000E+00
  0.00000000E+00  0.00000000E+00  0.00000000E+00
  0.00000000E+00  0.00000000E+00  0.00000000E+00
  0.00000000E+00  0.00000000E+00  0.00000000E+00
  0.00000000E+00  0.00000000E+00  0.00000000E+00
  0.00000000E+00  0.00000000E+00  0.00000000E+00
  0.00000000E+00  0.00000000E+00  0.00000000E+00
  0.00000000E+00  0.00000000E+00  0.00000000E+00
  0.00000000E+00  0.00000000E+00  0.00000000E+00
