Graphene-B4C3 Top with lattice parameter
   1.00000000000000     
     4.2097494877961559    2.4304999999999999    0.0000000000000000
    -4.2097494877961559    2.4304999999999999    0.0000000000000000
     0.0000000000000000    0.0000000000000000   15.0000000000000000
   B    C 
     4    11
Direct
  0.0040263360693488  0.0026633098900212  0.1009936410075926
  0.3592148882641230  0.0029737515892659  0.1004040619502566
  0.0037310491132030  0.3575714489147598  0.1004047908350010
  0.6491540107952120  0.6475067634964939  0.1004015482105481
  0.3276303325242644  0.3259850043183974  0.1003960252780518
  0.6807308069791489  0.0029696491091098  0.1004005735452767
  0.0037404008160891  0.6790995309062303  0.1003988332221698
  0.0001478089437716  0.5000735847345104  0.3350166841662096
  0.1668016347833533  0.3334596080047842  0.3350517913535366
  0.0001325428818415  0.0000822872675117  0.3349816843908080
  0.1668430106070529  0.8334160171128027  0.3350556785532428
  0.5001435124229214  0.5001095730276733  0.3350191796586078
  0.6668008960550595  0.3334173370822590  0.3349209544867005
  0.5001058767175561  0.0000666543146073  0.3350151803382174
  0.6667575596937475  0.8333728135648976  0.3350520396704634
 
  0.00000000E+00  0.00000000E+00  0.00000000E+00
  0.00000000E+00  0.00000000E+00  0.00000000E+00
  0.00000000E+00  0.00000000E+00  0.00000000E+00
  0.00000000E+00  0.00000000E+00  0.00000000E+00
  0.00000000E+00  0.00000000E+00  0.00000000E+00
  0.00000000E+00  0.00000000E+00  0.00000000E+00
  0.00000000E+00  0.00000000E+00  0.00000000E+00
  0.00000000E+00  0.00000000E+00  0.00000000E+00
  0.00000000E+00  0.00000000E+00  0.00000000E+00
  0.00000000E+00  0.00000000E+00  0.00000000E+00
  0.00000000E+00  0.00000000E+00  0.00000000E+00
  0.00000000E+00  0.00000000E+00  0.00000000E+00
  0.00000000E+00  0.00000000E+00  0.00000000E+00
  0.00000000E+00  0.00000000E+00  0.00000000E+00
  0.00000000E+00  0.00000000E+00  0.00000000E+00
