Graphene-B4C3 Top with lattice parameter
   1.00000000000000     
     4.1939666673638687    2.4220754551414592    0.0020335663094675
    -4.1939183243608014    2.4219922180331430    0.0006333630368184
     0.0027132360886931    0.0087771396559647   13.3584458505377732
   B    C 
     4    11
Direct
  0.0038714505106250  0.0027909972390502  0.0884519208097659
  0.3589770938486234  0.0027275711763776  0.0862768453104564
  0.0032916144775354  0.3575860464633052  0.0863001953307333
  0.6491891228051699  0.6472299500195697  0.0862380475306894
  0.3276924803946898  0.3258353429682115  0.0862677557376012
  0.6804183162035493  0.0028354848988709  0.0864955423891804
  0.0032996812317753  0.6788671610221352  0.0865428769148503
  0.0002091781987250  0.5001406875982021  0.3467237149711644
  0.1669894828523336  0.3334692951891954  0.3467921180425610
  0.0002524629645495  0.0001648651298509  0.3465350249559804
  0.1670722755663300  0.8336335829406074  0.3468174564722626
  0.5003082803322498  0.5001894849070988  0.3467183712920647
  0.6670392466825620  0.3335281240491783  0.3466123980667134
  0.5002287857704764  0.0002140832392795  0.3467335606660886
  0.6671211948274968  0.8335546564923932  0.3468068381765774
 
  0.00000000E+00  0.00000000E+00  0.00000000E+00
  0.00000000E+00  0.00000000E+00  0.00000000E+00
  0.00000000E+00  0.00000000E+00  0.00000000E+00
  0.00000000E+00  0.00000000E+00  0.00000000E+00
  0.00000000E+00  0.00000000E+00  0.00000000E+00
  0.00000000E+00  0.00000000E+00  0.00000000E+00
  0.00000000E+00  0.00000000E+00  0.00000000E+00
  0.00000000E+00  0.00000000E+00  0.00000000E+00
  0.00000000E+00  0.00000000E+00  0.00000000E+00
  0.00000000E+00  0.00000000E+00  0.00000000E+00
  0.00000000E+00  0.00000000E+00  0.00000000E+00
  0.00000000E+00  0.00000000E+00  0.00000000E+00
  0.00000000E+00  0.00000000E+00  0.00000000E+00
  0.00000000E+00  0.00000000E+00  0.00000000E+00
  0.00000000E+00  0.00000000E+00  0.00000000E+00
