Graphene-B4C3 Bridge with lattice parame
   1.00000000000000     
     4.2010892337583119    2.4255000000000000    0.0000000000000000
    -4.2010892337583119    2.4255000000000000    0.0000000000000000
     0.0000000000000000    0.0000000000000000   15.0000000000000000
   B    C 
     4    11
Direct
  0.0059914427717035  0.0011203136155163  0.1004928841725437
  0.3610979397412291  0.0010073568375573  0.1013973390190379
  0.0061141678002025  0.3561845187099330  0.1015287203191650
  0.6511743421189595  0.6457709487902206  0.1014877130678385
  0.3297655461279257  0.3245122459466935  0.1013061924706360
  0.6825423409322781  0.0009328218915109  0.1012195558663004
  0.0060393598445096  0.6773615719257345  0.1013248595469886
  0.0816709884728142  0.4182333210242418  0.3370374995418837
  0.2483358665149266  0.2515890177391542  0.3371650375961526
  0.0816797982288691  0.9182558934049857  0.3371017238436198
  0.2483672908600532  0.7515861226787840  0.3370494058305198
  0.5816351815140125  0.4182144059476441  0.3370578826468310
  0.7482990367874598  0.2515468048658741  0.3370184314829427
  0.5816332912759379  0.9182302901208215  0.3371270194760845
  0.7482807403424403  0.7515550331680252  0.3370650684527919
 
  0.00000000E+00  0.00000000E+00  0.00000000E+00
  0.00000000E+00  0.00000000E+00  0.00000000E+00
  0.00000000E+00  0.00000000E+00  0.00000000E+00
  0.00000000E+00  0.00000000E+00  0.00000000E+00
  0.00000000E+00  0.00000000E+00  0.00000000E+00
  0.00000000E+00  0.00000000E+00  0.00000000E+00
  0.00000000E+00  0.00000000E+00  0.00000000E+00
  0.00000000E+00  0.00000000E+00  0.00000000E+00
  0.00000000E+00  0.00000000E+00  0.00000000E+00
  0.00000000E+00  0.00000000E+00  0.00000000E+00
  0.00000000E+00  0.00000000E+00  0.00000000E+00
  0.00000000E+00  0.00000000E+00  0.00000000E+00
  0.00000000E+00  0.00000000E+00  0.00000000E+00
  0.00000000E+00  0.00000000E+00  0.00000000E+00
  0.00000000E+00  0.00000000E+00  0.00000000E+00
