Graphene-B4C3 Hollow 2 with lattice para
   1.00000000000000     
     4.2166776910264314    2.4344999999999999    0.0000000000000000
    -4.2166776910264314    2.4344999999999999    0.0000000000000000
     0.0000000000000000    0.0000000000000000   15.0000000000000000
   B    C 
     4    11
Direct
  0.0044114700486153  0.0029298708237372  0.0996809244705287
  0.3595512345405435  0.0029385246832176  0.1006970032148969
  0.0044210400042672  0.3580698478621975  0.1007000681736006
  0.6492832919609975  0.6478006814158508  0.1007133766229458
  0.3278798618032994  0.3263953666585135  0.1005253406523964
  0.6809642619341981  0.0029419008601719  0.1005192036741364
  0.0044258702173286  0.6794814677457589  0.1005185355928142
  0.1664394202829077  0.3331915320889723  0.3385122071567699
  0.3331268564081505  0.1665042817482543  0.3385140142696424
  0.1664813673694481  0.8332138957492625  0.3385156077125831
  0.3331275161157736  0.6665270046596548  0.3384070600126979
  0.6664613903638733  0.3331918640813605  0.3384070424434209
  0.8331484475737035  0.1665454869364547  0.3385149250526662
  0.6664631374215469  0.8331742467916481  0.3385108425225952
  0.8331088339553533  0.6665280278949558  0.3385098484283330
 
  0.00000000E+00  0.00000000E+00  0.00000000E+00
  0.00000000E+00  0.00000000E+00  0.00000000E+00
  0.00000000E+00  0.00000000E+00  0.00000000E+00
  0.00000000E+00  0.00000000E+00  0.00000000E+00
  0.00000000E+00  0.00000000E+00  0.00000000E+00
  0.00000000E+00  0.00000000E+00  0.00000000E+00
  0.00000000E+00  0.00000000E+00  0.00000000E+00
  0.00000000E+00  0.00000000E+00  0.00000000E+00
  0.00000000E+00  0.00000000E+00  0.00000000E+00
  0.00000000E+00  0.00000000E+00  0.00000000E+00
  0.00000000E+00  0.00000000E+00  0.00000000E+00
  0.00000000E+00  0.00000000E+00  0.00000000E+00
  0.00000000E+00  0.00000000E+00  0.00000000E+00
  0.00000000E+00  0.00000000E+00  0.00000000E+00
  0.00000000E+00  0.00000000E+00  0.00000000E+00
