Graphene-B4C3 Top with lattice parameter
   1.00000000000000     
     4.1967591067393899    2.4230000000000000    0.0000000000000000
    -4.1967591067393899    2.4230000000000000    0.0000000000000000
     0.0000000000000000    0.0000000000000000   15.0000000000000000
   B    C 
     4    11
Direct
  0.0040501368433264  0.0026929014324902  0.1016195691233400
  0.3592355442240192  0.0029727989648186  0.1007120690038671
  0.0037607806238677  0.3575904369144076  0.1007128144824139
  0.6491448536649211  0.6475038517572793  0.1007090137077794
  0.3277760455226988  0.3261345296979558  0.1007492661570316
  0.6806003349069698  0.0029718639772763  0.1007440148561860
  0.0037630041768454  0.6789559016267067  0.1007405729918833
  0.0001392094831517  0.5000678012070464  0.3350948040357074
  0.1667886139890341  0.3334566846457229  0.3351293004738508
  0.0001207378338960  0.0000757573403355  0.3350563049167322
  0.1668317591140485  0.8334083771109032  0.3351329806269697
  0.5001309655589656  0.5001056620386443  0.3350976862307884
  0.6667869572117564  0.3334106436081091  0.3349918202516089
  0.5000917504441046  0.0000571184115682  0.3350931309383349
  0.6667399730690864  0.8333630046000622  0.3351293188701815
 
  0.00000000E+00  0.00000000E+00  0.00000000E+00
  0.00000000E+00  0.00000000E+00  0.00000000E+00
  0.00000000E+00  0.00000000E+00  0.00000000E+00
  0.00000000E+00  0.00000000E+00  0.00000000E+00
  0.00000000E+00  0.00000000E+00  0.00000000E+00
  0.00000000E+00  0.00000000E+00  0.00000000E+00
  0.00000000E+00  0.00000000E+00  0.00000000E+00
  0.00000000E+00  0.00000000E+00  0.00000000E+00
  0.00000000E+00  0.00000000E+00  0.00000000E+00
  0.00000000E+00  0.00000000E+00  0.00000000E+00
  0.00000000E+00  0.00000000E+00  0.00000000E+00
  0.00000000E+00  0.00000000E+00  0.00000000E+00
  0.00000000E+00  0.00000000E+00  0.00000000E+00
  0.00000000E+00  0.00000000E+00  0.00000000E+00
  0.00000000E+00  0.00000000E+00  0.00000000E+00
