Graphene-Borophene Hollow 1 with lattice
   1.00000000000000     
     4.3188686886729952    2.4935000000000000    0.0000000000000000
    -4.3188686886729952    2.4935000000000000    0.0000000000000000
     0.0000000000000000    0.0000000000000000   15.0000000000000000
   B    C 
     8     8
Direct
  0.6719114017535754 -0.0025918343119609  0.1667063644569046
  0.3333310336052807 -0.0024817267059067  0.1665057691283330
  0.0025918343119609  0.3280875982464270  0.1667063644569046
  0.0024817267059067  0.6666679663947219  0.1665057691283330
  0.3329777666014851  0.3280259665926419  0.1666054607182451
  0.6719730334073604  0.6670212333985174  0.1666054607182451
  0.6689583138815782  0.3310406861184240  0.1615574455798896
  0.3357853272644526  0.6642136727355498  0.1721213101416996
  0.2752433466502101  0.2247339490818597  0.4028536766875118
  0.4419446655212949  0.0580264162092030  0.4030175692717002
  0.2752617675660144  0.7247372324339886  0.4030284247637857
  0.4419627488086851  0.5580362511913176  0.4030017641942042
  0.7752436768790153  0.2247553231209878  0.4029451181375002
  0.9419776112231688  0.0580213887768334  0.4027682566575418
  0.7752650509181429  0.7247556533497921  0.4028536766875118
  0.9419725837907992  0.5580543344787071  0.4030175692717002
 
  0.00000000E+00  0.00000000E+00  0.00000000E+00
  0.00000000E+00  0.00000000E+00  0.00000000E+00
  0.00000000E+00  0.00000000E+00  0.00000000E+00
  0.00000000E+00  0.00000000E+00  0.00000000E+00
  0.00000000E+00  0.00000000E+00  0.00000000E+00
  0.00000000E+00  0.00000000E+00  0.00000000E+00
  0.00000000E+00  0.00000000E+00  0.00000000E+00
  0.00000000E+00  0.00000000E+00  0.00000000E+00
  0.00000000E+00  0.00000000E+00  0.00000000E+00
  0.00000000E+00  0.00000000E+00  0.00000000E+00
  0.00000000E+00  0.00000000E+00  0.00000000E+00
  0.00000000E+00  0.00000000E+00  0.00000000E+00
  0.00000000E+00  0.00000000E+00  0.00000000E+00
  0.00000000E+00  0.00000000E+00  0.00000000E+00
  0.00000000E+00  0.00000000E+00  0.00000000E+00
  0.00000000E+00  0.00000000E+00  0.00000000E+00
