Graphene-Borophene Hollow 1 with lattice
   1.00000000000000     
     4.3154045870578575    2.4914999999999998    0.0000000000000000
    -4.3154045870578575    2.4914999999999998    0.0000000000000000
     0.0000000000000000    0.0000000000000000   15.0000000000000000
   B    C 
     8     8
Direct
  0.6737730342093000 -0.0043891424330905  0.1671978770387647
  0.3350303903559811 -0.0044007065619024  0.1668219326429840
  0.0043891424330905  0.3262259657907018  0.1671978770387647
  0.0044007065619024  0.6649686096440213  0.1668219326429840
  0.3348094693816323  0.3260805071449526  0.1669357616586829
  0.6739184928550496  0.6651895306183704  0.1669357616586829
  0.6708692669531298  0.3291297330468729  0.1611978999261042
  0.3376128209917138  0.6623861790082884  0.1730132236284266
  0.2734035039845809  0.2265542223087756  0.4025548700673439
  0.4400824346779711  0.0599120216849032  0.4025614662957981
  0.2734514270769746  0.7265475729230285  0.4026229429513887
  0.4401578415119230  0.5598411584880801  0.4026608548445763
  0.7733905933693712  0.2266084066306307  0.4025883131475817
  0.9400610085199843  0.0599379914800181  0.4025729500947858
  0.7734447776912274  0.7265954960154221  0.4025548700673439
  0.9400869783150995  0.5599165653220316  0.4025614662957981
 
  0.00000000E+00  0.00000000E+00  0.00000000E+00
  0.00000000E+00  0.00000000E+00  0.00000000E+00
  0.00000000E+00  0.00000000E+00  0.00000000E+00
  0.00000000E+00  0.00000000E+00  0.00000000E+00
  0.00000000E+00  0.00000000E+00  0.00000000E+00
  0.00000000E+00  0.00000000E+00  0.00000000E+00
  0.00000000E+00  0.00000000E+00  0.00000000E+00
  0.00000000E+00  0.00000000E+00  0.00000000E+00
  0.00000000E+00  0.00000000E+00  0.00000000E+00
  0.00000000E+00  0.00000000E+00  0.00000000E+00
  0.00000000E+00  0.00000000E+00  0.00000000E+00
  0.00000000E+00  0.00000000E+00  0.00000000E+00
  0.00000000E+00  0.00000000E+00  0.00000000E+00
  0.00000000E+00  0.00000000E+00  0.00000000E+00
  0.00000000E+00  0.00000000E+00  0.00000000E+00
  0.00000000E+00  0.00000000E+00  0.00000000E+00
