Graphene-BC3 Hollow with lattice paramet
   1.00000000000000     
     4.3656340604773556    2.5205000000000002    0.0000000000000000
    -4.3656340604773556    2.5205000000000002    0.0000000000000000
     0.0000000000000000    0.0000000000000000   15.0000000000000000
   B    C 
     2    14
Direct
  0.3382462679164292  0.6691220384134717  0.1004638122197655
  0.6715815108313421  0.3357897736480107  0.1001487469163760
  0.1645545222999567  0.3217381216529327  0.1001573663362579
  0.3241218294664857  0.1620595027022015  0.1001640942178803
  0.1645546566232477  0.8428143447732053  0.1001574702154812
  0.8453075051015660  0.1620585857076758  0.1001535905022553
  0.6856249751100227  0.8428112970966608  0.1001470579242914
  0.8453075495473485  0.6832464740340166  0.1001537606206352
  0.3334376607563490  0.1667194975978628  0.3253905289207693
  0.5001260301260758  0.0001274301585318  0.3253671271001835
  0.3334180143759415  0.6667096816562894  0.3250860001142770
  0.5001260150909902  0.4999999082490846  0.3253671219287800
  0.8334128789048245  0.1667208200578693  0.3253859222978532
  0.0000885042854426  0.0000448990114866  0.3253704227154099
  0.8334128581988722  0.6666933648502231  0.3253859321341703
  0.0000045546984391  0.5000029270571728  0.3253677125022859
 
  0.00000000E+00  0.00000000E+00  0.00000000E+00
  0.00000000E+00  0.00000000E+00  0.00000000E+00
  0.00000000E+00  0.00000000E+00  0.00000000E+00
  0.00000000E+00  0.00000000E+00  0.00000000E+00
  0.00000000E+00  0.00000000E+00  0.00000000E+00
  0.00000000E+00  0.00000000E+00  0.00000000E+00
  0.00000000E+00  0.00000000E+00  0.00000000E+00
  0.00000000E+00  0.00000000E+00  0.00000000E+00
  0.00000000E+00  0.00000000E+00  0.00000000E+00
  0.00000000E+00  0.00000000E+00  0.00000000E+00
  0.00000000E+00  0.00000000E+00  0.00000000E+00
  0.00000000E+00  0.00000000E+00  0.00000000E+00
  0.00000000E+00  0.00000000E+00  0.00000000E+00
  0.00000000E+00  0.00000000E+00  0.00000000E+00
  0.00000000E+00  0.00000000E+00  0.00000000E+00
  0.00000000E+00  0.00000000E+00  0.00000000E+00
