Graphene-B4C3 Top with lattice parameter
   1.00000000000000     
     4.1993571829507426    2.4245000000000001    0.0000000000000000
    -4.1993571829507426    2.4245000000000001    0.0000000000000000
     0.0000000000000000    0.0000000000000000   15.0000000000000000
   B    C 
     4    11
Direct
  0.0040804277040196  0.0027126461470156  0.1012301392488777
  0.3592716648186999  0.0030062416844665  0.1006592582099381
  0.0037824145991797  0.3576050817735201  0.1006599747375243
  0.6491757459993341  0.6475178041760172  0.1006564067198372
  0.3277766322253449  0.3261104746709187  0.1006536456741180
  0.6806744352627434  0.0030095247182599  0.1006523546226394
  0.0037747614806300  0.6790018799410994  0.1006492759970696
  0.0001181400778218  0.5000547819512637  0.3347984326784648
  0.1667613404491773  0.3334306502400919  0.3348332102284908
  0.0000936830165234  0.0000575289222744  0.3347580565981641
  0.1668020466931333  0.8333936019232009  0.3348371620319899
  0.5001002441515525  0.5000894557874843  0.3348013488124469
  0.6667622198111396  0.3333928023714521  0.3346933810844099
  0.5000631856231909  0.0000331249957231  0.3347967335459924
  0.6667237247542043  0.8333517340305366  0.3348332864767191
 
  0.00000000E+00  0.00000000E+00  0.00000000E+00
  0.00000000E+00  0.00000000E+00  0.00000000E+00
  0.00000000E+00  0.00000000E+00  0.00000000E+00
  0.00000000E+00  0.00000000E+00  0.00000000E+00
  0.00000000E+00  0.00000000E+00  0.00000000E+00
  0.00000000E+00  0.00000000E+00  0.00000000E+00
  0.00000000E+00  0.00000000E+00  0.00000000E+00
  0.00000000E+00  0.00000000E+00  0.00000000E+00
  0.00000000E+00  0.00000000E+00  0.00000000E+00
  0.00000000E+00  0.00000000E+00  0.00000000E+00
  0.00000000E+00  0.00000000E+00  0.00000000E+00
  0.00000000E+00  0.00000000E+00  0.00000000E+00
  0.00000000E+00  0.00000000E+00  0.00000000E+00
  0.00000000E+00  0.00000000E+00  0.00000000E+00
  0.00000000E+00  0.00000000E+00  0.00000000E+00
