Graphene-Borophene Hollow 2 with lattice
   1.00000000000000     
     4.3171366378654268    2.4925000000000002    0.0000000000000000
    -4.3171366378654268    2.4925000000000002    0.0000000000000000
     0.0000000000000000    0.0000000000000000   15.0000000000000000
   B    C 
     8     8
Direct
  0.6695024978524396 -0.0000483917048184  0.1669701407003035
  0.3304481104427443 -0.0000483917048184  0.1669701407003035
  0.0000483917048184  0.3304965021475629  0.1669701407003035
  0.0000483917048184  0.6695508895572582  0.1669701407003035
  0.3304481104427443  0.3304965021475629  0.1669701407003035
  0.6695024978524396  0.6695508895572582  0.1669701407003035
  0.6666659999999993  0.3333330000000032  0.1620490259680131
  0.3333330000000032  0.6666659999999993  0.1724648543352173
  0.3333527575307962  0.1666763787654052  0.4035446554019854
  0.5000203144349645  0.0000406288699290  0.4036174191065592
  0.3333326666666636  0.6666663333333389  0.4035525720370525
  0.5000203144349645  0.4999786855650385  0.4036174191065592
  0.8333226212345969  0.1666763787654052  0.4035446554019854
  0.9999996666666675  0.9999993333333350  0.4034264799322532
  0.8333226212345969  0.6666462424692062  0.4035446554019854
 -0.0000416288699263  0.4999786855650385  0.4036174191065592
 
  0.00000000E+00  0.00000000E+00  0.00000000E+00
  0.00000000E+00  0.00000000E+00  0.00000000E+00
  0.00000000E+00  0.00000000E+00  0.00000000E+00
  0.00000000E+00  0.00000000E+00  0.00000000E+00
  0.00000000E+00  0.00000000E+00  0.00000000E+00
  0.00000000E+00  0.00000000E+00  0.00000000E+00
  0.00000000E+00  0.00000000E+00  0.00000000E+00
  0.00000000E+00  0.00000000E+00  0.00000000E+00
  0.00000000E+00  0.00000000E+00  0.00000000E+00
  0.00000000E+00  0.00000000E+00  0.00000000E+00
  0.00000000E+00  0.00000000E+00  0.00000000E+00
  0.00000000E+00  0.00000000E+00  0.00000000E+00
  0.00000000E+00  0.00000000E+00  0.00000000E+00
  0.00000000E+00  0.00000000E+00  0.00000000E+00
  0.00000000E+00  0.00000000E+00  0.00000000E+00
  0.00000000E+00  0.00000000E+00  0.00000000E+00
