Graphene-Borophene Bridge with lattice p
   1.00000000000000     
     4.3309930443259779    2.5005000000000002    0.0000000000000000
    -4.3309930443259779    2.5005000000000002    0.0000000000000000
     0.0000000000000000    0.0000000000000000   15.0000000000000000
   B    C 
     8     8
Direct
  0.6695076384084774 -0.0000003500336117  0.1002576757782785
  0.3304929781074630  0.0000001850056753  0.1002583521535328
  0.0000003500336117  0.3304913615915250  0.1002576757782785
 -0.0000001850056753  0.6695060218925395  0.1002583521535328
  0.3304930710826224  0.3304928326317269  0.1002584754297969
  0.6695061673682757  0.6695059289173800  0.1002584754297969
  0.6666657665880660  0.3333332334119366  0.0995205077597989
  0.3333325267027346  0.6666664732972680  0.1010532202526038
  0.2500262392624758  0.2500376617205571  0.4688033692537219
  0.4166932844592637  0.0833169620084123  0.4687992181013935
  0.2499980787712435  0.7500009212287591  0.4687964208057441
  0.4166638604929070  0.5833351395070956  0.4688009848042062
  0.7499738889233561  0.2500251110766464  0.4688020640509108
  0.9166626252008460  0.0833363747991565  0.4688059542266605
  0.7499613382794456  0.7499727607375267  0.4688033692537219
  0.9166820379915902  0.5833057155407387  0.4687992181013935
 
  0.00000000E+00  0.00000000E+00  0.00000000E+00
  0.00000000E+00  0.00000000E+00  0.00000000E+00
  0.00000000E+00  0.00000000E+00  0.00000000E+00
  0.00000000E+00  0.00000000E+00  0.00000000E+00
  0.00000000E+00  0.00000000E+00  0.00000000E+00
  0.00000000E+00  0.00000000E+00  0.00000000E+00
  0.00000000E+00  0.00000000E+00  0.00000000E+00
  0.00000000E+00  0.00000000E+00  0.00000000E+00
  0.00000000E+00  0.00000000E+00  0.00000000E+00
  0.00000000E+00  0.00000000E+00  0.00000000E+00
  0.00000000E+00  0.00000000E+00  0.00000000E+00
  0.00000000E+00  0.00000000E+00  0.00000000E+00
  0.00000000E+00  0.00000000E+00  0.00000000E+00
  0.00000000E+00  0.00000000E+00  0.00000000E+00
  0.00000000E+00  0.00000000E+00  0.00000000E+00
  0.00000000E+00  0.00000000E+00  0.00000000E+00
