Graphene-B4C3 Hollow 2 with lattice para
   1.00000000000000     
     4.1742424462409931    2.4099999999999993    0.0000000000000000
    -4.1742424462409931    2.4099999999999993    0.0000000000000000
     0.0000000000000000    0.0000000000000000   15.0000000000000000
   B    C 
     4    11
Direct
  0.0043880970114423  0.0029126112608078  0.0990721466721735
  0.3595256076852079  0.0029167574794881  0.1014522317798211
  0.0043952755830729  0.3580500147636074  0.1014542993519480
  0.6492582786817385  0.6477796564243385  0.1014587206673591
  0.3282934504580417  0.3268141405334541  0.1011072460457742
  0.6804971133552782  0.0029186716789530  0.1011088386441016
  0.0043979559307291  0.6790187814360307  0.1011099172888923
  0.1664627083254519  0.3332087778706624  0.3380863229504491
  0.3331484420425853  0.1665240405328162  0.3380881567086778
  0.1665003512148508  0.8332299221425769  0.3380906687511089
  0.3331521214136197  0.6665463320878655  0.3379779303827105
  0.6664855635060920  0.3332114055456736  0.3379779442042891
  0.8331689507039858  0.1665603545105851  0.3380900071904491
  0.6664865453157535  0.8331951417609798  0.3380863736835653
  0.8331335387721595  0.6665473919721718  0.3380851956787084
 
  0.00000000E+00  0.00000000E+00  0.00000000E+00
  0.00000000E+00  0.00000000E+00  0.00000000E+00
  0.00000000E+00  0.00000000E+00  0.00000000E+00
  0.00000000E+00  0.00000000E+00  0.00000000E+00
  0.00000000E+00  0.00000000E+00  0.00000000E+00
  0.00000000E+00  0.00000000E+00  0.00000000E+00
  0.00000000E+00  0.00000000E+00  0.00000000E+00
  0.00000000E+00  0.00000000E+00  0.00000000E+00
  0.00000000E+00  0.00000000E+00  0.00000000E+00
  0.00000000E+00  0.00000000E+00  0.00000000E+00
  0.00000000E+00  0.00000000E+00  0.00000000E+00
  0.00000000E+00  0.00000000E+00  0.00000000E+00
  0.00000000E+00  0.00000000E+00  0.00000000E+00
  0.00000000E+00  0.00000000E+00  0.00000000E+00
  0.00000000E+00  0.00000000E+00  0.00000000E+00
