Graphene-BC3 Hollow with lattice paramet
   1.00000000000000     
     4.3647680350735696    2.5199999999999996    0.0000000000000000
    -4.3647680350735696    2.5199999999999996    0.0000000000000000
     0.0000000000000000    0.0000000000000000   15.0000000000000000
   B    C 
     2    14
Direct
  0.3382550831079037  0.6691253499479910  0.1004581654328585
  0.6715915887626116  0.3357934436110325  0.1001462033548844
  0.1645693603893900  0.3217552761010961  0.1001538224983484
  0.3241418264338725  0.1620700041561459  0.1001633141330923
  0.1645700315693225  0.8428121562987122  0.1001539653159786
  0.8453074230533832  0.1620675539313221  0.1001525640254412
  0.6856206715485815  0.8428092122481448  0.1001432310080106
  0.8453074166146440  0.6832374500868901  0.1001527132483395
  0.3334272420520073  0.1667147808696265  0.3253941805551485
  0.5001186419998097  0.0001228197453680  0.3253706429354754
  0.3334090489881001  0.6667056411306369  0.3250875342468192
  0.5001186319475901  0.4999971242975419  0.3253706455328385
  0.8334038592006617  0.1667161829390086  0.3253894927522052
  0.0000816825229361  0.0000415084712473  0.3253694243613384
  0.8334038812335921  0.6666900370019104  0.3253894978621948
 -0.0000010560910737  0.5000001258300203  0.3253712694036984
 
  0.00000000E+00  0.00000000E+00  0.00000000E+00
  0.00000000E+00  0.00000000E+00  0.00000000E+00
  0.00000000E+00  0.00000000E+00  0.00000000E+00
  0.00000000E+00  0.00000000E+00  0.00000000E+00
  0.00000000E+00  0.00000000E+00  0.00000000E+00
  0.00000000E+00  0.00000000E+00  0.00000000E+00
  0.00000000E+00  0.00000000E+00  0.00000000E+00
  0.00000000E+00  0.00000000E+00  0.00000000E+00
  0.00000000E+00  0.00000000E+00  0.00000000E+00
  0.00000000E+00  0.00000000E+00  0.00000000E+00
  0.00000000E+00  0.00000000E+00  0.00000000E+00
  0.00000000E+00  0.00000000E+00  0.00000000E+00
  0.00000000E+00  0.00000000E+00  0.00000000E+00
  0.00000000E+00  0.00000000E+00  0.00000000E+00
  0.00000000E+00  0.00000000E+00  0.00000000E+00
  0.00000000E+00  0.00000000E+00  0.00000000E+00
