Graphene-Borophene Bridge with lattice p
   1.00000000000000     
     4.3119404854427197    2.4895000000000000    0.0000000000000000
    -4.3119404854427197    2.4895000000000000    0.0000000000000000
     0.0000000000000000    0.0000000000000000   15.0000000000000000
   B    C 
     8     8
Direct
  0.6828595471591541  0.9857432071213807  0.1012049609753447
  0.3458222082544111  0.9857121662914778  0.1012082958719560
  0.0142567928786193  0.3171394528408484  0.1012049609753447
  0.0142878337085222  0.6541767917455914  0.1012082958719560
  0.3457252586706403  0.3170986491788810  0.1000619829932958
  0.6829003508211215  0.6542737413293622  0.1000619829932958
  0.6806363056435956  0.3193626943564070  0.0879160892613555
  0.3473924485617417  0.6526065514382609  0.1137938753259533
  0.2357266783799332  0.2641944448148195  0.3344966072675177
  0.4024150288047394  0.0975452194018018  0.3344969681526209
  0.2357461159916738  0.7642528840083287  0.3346281653068175
  0.4024211067013468  0.5975778932986557  0.3345752813018166
  0.7357734759494292  0.2642255240505733  0.3344792209831837
  0.9024381793584055  0.0975608206415970  0.3343364039660557
  0.7358045551851760  0.7642723216200693  0.3344966072675177
  0.9024537805982007  0.5975839711952631  0.3344969681526209
 
  0.00000000E+00  0.00000000E+00  0.00000000E+00
  0.00000000E+00  0.00000000E+00  0.00000000E+00
  0.00000000E+00  0.00000000E+00  0.00000000E+00
  0.00000000E+00  0.00000000E+00  0.00000000E+00
  0.00000000E+00  0.00000000E+00  0.00000000E+00
  0.00000000E+00  0.00000000E+00  0.00000000E+00
  0.00000000E+00  0.00000000E+00  0.00000000E+00
  0.00000000E+00  0.00000000E+00  0.00000000E+00
  0.00000000E+00  0.00000000E+00  0.00000000E+00
  0.00000000E+00  0.00000000E+00  0.00000000E+00
  0.00000000E+00  0.00000000E+00  0.00000000E+00
  0.00000000E+00  0.00000000E+00  0.00000000E+00
  0.00000000E+00  0.00000000E+00  0.00000000E+00
  0.00000000E+00  0.00000000E+00  0.00000000E+00
  0.00000000E+00  0.00000000E+00  0.00000000E+00
  0.00000000E+00  0.00000000E+00  0.00000000E+00
