Graphene-B4C3 Bridge with lattice parame
   1.00000000000000     
     4.1655821922031482    2.4049999999999994    0.0000000000000000
    -4.1655821922031482    2.4049999999999994    0.0000000000000000
     0.0000000000000000    0.0000000000000000   15.0000000000000000
   B    C 
     4    11
Direct
  0.0228168220736061 -0.0151718446363693  0.0943903972009213
  0.3774527597897291 -0.0151041201495258  0.1043073442346835
  0.0227152883072805  0.3394702423403987  0.1044985457505443
  0.6683413724508349  0.6301916753415665  0.1044284518206856
  0.3466380404230419  0.3084696256232076  0.1031481563692309
  0.6992689814903676 -0.0150585585002302  0.1029682820068057
  0.0229146714264278  0.6611596925032802  0.1031396997908245
  0.0670339267218907  0.4323556743928549  0.3360103232825754
  0.2336479578678963  0.2656969200022726  0.3362487928112696
  0.0669881703496120  0.9323657538442004  0.3360077194441573
  0.2336950823151859  0.7657114207963418  0.3360253015054995
  0.5669515860808693  0.4323576663455837  0.3359952636623489
  0.7336038739119858  0.2656573936891574  0.3359695029861083
  0.5669305213232715  0.9323299490131500  0.3361869803675105
  0.7336282788013218  0.7656691760608076  0.3360545721001706
 
  0.00000000E+00  0.00000000E+00  0.00000000E+00
  0.00000000E+00  0.00000000E+00  0.00000000E+00
  0.00000000E+00  0.00000000E+00  0.00000000E+00
  0.00000000E+00  0.00000000E+00  0.00000000E+00
  0.00000000E+00  0.00000000E+00  0.00000000E+00
  0.00000000E+00  0.00000000E+00  0.00000000E+00
  0.00000000E+00  0.00000000E+00  0.00000000E+00
  0.00000000E+00  0.00000000E+00  0.00000000E+00
  0.00000000E+00  0.00000000E+00  0.00000000E+00
  0.00000000E+00  0.00000000E+00  0.00000000E+00
  0.00000000E+00  0.00000000E+00  0.00000000E+00
  0.00000000E+00  0.00000000E+00  0.00000000E+00
  0.00000000E+00  0.00000000E+00  0.00000000E+00
  0.00000000E+00  0.00000000E+00  0.00000000E+00
  0.00000000E+00  0.00000000E+00  0.00000000E+00
