Graphene-B4C3 Hollow 1 with lattice para
   1.00000000000000     
     4.2175437164302156    2.4350000000000001    0.0000000000000000
    -4.2175437164302156    2.4350000000000001    0.0000000000000000
     0.0000000000000000    0.0000000000000000   15.0000000000000000
   B    C 
     4    11
Direct
  0.0402147544361496 -0.0297510101750543  0.0983069557707497
  0.3955674221870112 -0.0292116215771533  0.1022522147780518
  0.0400139322667675  0.3253480963876729  0.1017098689296365
  0.6852823159657679  0.6154956974185665  0.1019285572643622
  0.3637079774227179  0.2938682975869081  0.1010562913311168
  0.7172275547386382 -0.0292833575141698  0.1017674938930113
  0.0401910009693665  0.6471011883310951  0.1011096556112972
  0.0795511815764519  0.4171792331200407  0.3378488551495270
  0.2461235135179102  0.2503150136253423  0.3380586941537775
  0.0795444889442886  0.9172531919658294  0.3379294653414056
  0.2461891518307778  0.7504643258971824  0.3380506366407279
  0.5794936467703424  0.4172154552001105  0.3379472167126261
  0.7461562139615269  0.2504443438852104  0.3378890767203666
  0.5794614932837231  0.9170562712308934  0.3379050551551606
  0.7461249076841104  0.7503833190619938  0.3380192958815054
 
  0.00000000E+00  0.00000000E+00  0.00000000E+00
  0.00000000E+00  0.00000000E+00  0.00000000E+00
  0.00000000E+00  0.00000000E+00  0.00000000E+00
  0.00000000E+00  0.00000000E+00  0.00000000E+00
  0.00000000E+00  0.00000000E+00  0.00000000E+00
  0.00000000E+00  0.00000000E+00  0.00000000E+00
  0.00000000E+00  0.00000000E+00  0.00000000E+00
  0.00000000E+00  0.00000000E+00  0.00000000E+00
  0.00000000E+00  0.00000000E+00  0.00000000E+00
  0.00000000E+00  0.00000000E+00  0.00000000E+00
  0.00000000E+00  0.00000000E+00  0.00000000E+00
  0.00000000E+00  0.00000000E+00  0.00000000E+00
  0.00000000E+00  0.00000000E+00  0.00000000E+00
  0.00000000E+00  0.00000000E+00  0.00000000E+00
  0.00000000E+00  0.00000000E+00  0.00000000E+00
