Graphene-B4C3 Hollow 1 with lattice para
   1.00000000000000     
     4.1932950051242512    2.4209999999999998    0.0000000000000000
    -4.1932950051242512    2.4209999999999998    0.0000000000000000
     0.0000000000000000    0.0000000000000000   15.0000000000000000
   B    C 
     4    11
Direct
  0.0041708893384935  0.0027216425150170  0.1185695525341349
  0.3568525940271375  0.0027561980847197  0.0979668178176977
  0.0042090467849148  0.3555196371514822  0.0980509004439906
  0.6515347112024159  0.6499891700604778  0.0980136411042820
  0.3266162921171337  0.3250422319996942  0.1002826209883412
  0.6819727400175509  0.0027831341080495  0.1003169036566773
  0.0042401350308746  0.6803671736172296  0.1002552784629895
  0.1110932856698767  0.3888778056742739  0.3372887351714698
  0.2776761661704619  0.2222480383048082  0.3373841312429186
  0.1109760173616471  0.8888579691759930  0.3373058171858710
  0.2776573835124740  0.7222650013614160  0.3371894987778244
  0.6110901709494005  0.3889245019839390  0.3371856945374737
  0.7777369872443559  0.2222255008608443  0.3372984071687279
  0.6111522121620706  0.8889736461630723  0.3373708393624362
  0.7778709239667425  0.7223267933834515  0.3373004948784861
 
  0.00000000E+00  0.00000000E+00  0.00000000E+00
  0.00000000E+00  0.00000000E+00  0.00000000E+00
  0.00000000E+00  0.00000000E+00  0.00000000E+00
  0.00000000E+00  0.00000000E+00  0.00000000E+00
  0.00000000E+00  0.00000000E+00  0.00000000E+00
  0.00000000E+00  0.00000000E+00  0.00000000E+00
  0.00000000E+00  0.00000000E+00  0.00000000E+00
  0.00000000E+00  0.00000000E+00  0.00000000E+00
  0.00000000E+00  0.00000000E+00  0.00000000E+00
  0.00000000E+00  0.00000000E+00  0.00000000E+00
  0.00000000E+00  0.00000000E+00  0.00000000E+00
  0.00000000E+00  0.00000000E+00  0.00000000E+00
  0.00000000E+00  0.00000000E+00  0.00000000E+00
  0.00000000E+00  0.00000000E+00  0.00000000E+00
  0.00000000E+00  0.00000000E+00  0.00000000E+00
