Graphene-B4C3 Hollow 1 with lattice para
   1.00000000000000     
     4.1932950051242512    2.4209999999999998    0.0000000000000000
    -4.1932950051242512    2.4209999999999998    0.0000000000000000
     0.0000000000000000    0.0000000000000000   15.0000000000000000
   B    C 
     4    11
Direct
  0.0430514753311683 -0.0317259429276543  0.0995450655630531
  0.3981085519704495 -0.0315938963510073  0.1001930601400740
  0.0429796839351777  0.3231220129460999  0.1003000149294437
  0.6880894997366058  0.6129451814196599  0.1002819404993004
  0.3667672245808043  0.2915825361123121  0.1000042695607556
  0.7195384998044775 -0.0316159648662695  0.1001805578027095
  0.0425666225813804  0.6443784075081307  0.1000402074675355
  0.0771526414765339  0.4191703383434417  0.3388619755571244
  0.2438200959144405  0.2525518370513383  0.3389933548966714
  0.0771060760766135  0.9191656017107546  0.3388739469825014
  0.2438044814795603  0.7525127052381432  0.3389173901192669
  0.5771068047059931  0.4192005932077922  0.3388827112281462
  0.7437912904338083  0.2524653503670859  0.3388427576691284
  0.5771458814282889  0.9192298598943682  0.3389378609112683
  0.7438207261002464  0.7524898247902744  0.3389242200063420
 
  0.00000000E+00  0.00000000E+00  0.00000000E+00
  0.00000000E+00  0.00000000E+00  0.00000000E+00
  0.00000000E+00  0.00000000E+00  0.00000000E+00
  0.00000000E+00  0.00000000E+00  0.00000000E+00
  0.00000000E+00  0.00000000E+00  0.00000000E+00
  0.00000000E+00  0.00000000E+00  0.00000000E+00
  0.00000000E+00  0.00000000E+00  0.00000000E+00
  0.00000000E+00  0.00000000E+00  0.00000000E+00
  0.00000000E+00  0.00000000E+00  0.00000000E+00
  0.00000000E+00  0.00000000E+00  0.00000000E+00
  0.00000000E+00  0.00000000E+00  0.00000000E+00
  0.00000000E+00  0.00000000E+00  0.00000000E+00
  0.00000000E+00  0.00000000E+00  0.00000000E+00
  0.00000000E+00  0.00000000E+00  0.00000000E+00
  0.00000000E+00  0.00000000E+00  0.00000000E+00
