Graphene-B4C3 Hollow 1 with lattice para
   1.00000000000000     
     4.1932950051242512    2.4209999999999998    0.0000000000000000
    -4.1932950051242512    2.4209999999999998    0.0000000000000000
     0.0000000000000000    0.0000000000000000   15.0000000000000000
   B    C 
     4    11
Direct
  0.0044765911874705  0.0025867319337182  0.1055654429748832
  0.3590797938759236  0.0023678061733294  0.1004814531074191
  0.0046923371083473  0.3571333254581547  0.1008504618198314
  0.6501383255131147  0.6477391822161658  0.1007324976095820
  0.3286032734260804  0.3264003734053428  0.1013139848355586
  0.6805181939877449  0.0022779718978711  0.1016226916759117
  0.0045528030597588  0.6785185514122996  0.1013483471278901
  0.1107219271411495  0.3892002361162117  0.3374515741811306
  0.2774126007476923  0.2225184818209330  0.3375977511007962
  0.1107106501989421  0.8891934607520022  0.3375432190615755
  0.2774341019881861  0.7224579937877900  0.3373799705219439
  0.6107895444661802  0.3892121855921895  0.3373952915806076
  0.7774317692136286  0.2224251809846049  0.3374471618449226
  0.6108238450937268  0.8893342327952168  0.3375654357021324
  0.7774637985476042  0.7225127300986385  0.3374840501891363
 
  0.00000000E+00  0.00000000E+00  0.00000000E+00
  0.00000000E+00  0.00000000E+00  0.00000000E+00
  0.00000000E+00  0.00000000E+00  0.00000000E+00
  0.00000000E+00  0.00000000E+00  0.00000000E+00
  0.00000000E+00  0.00000000E+00  0.00000000E+00
  0.00000000E+00  0.00000000E+00  0.00000000E+00
  0.00000000E+00  0.00000000E+00  0.00000000E+00
  0.00000000E+00  0.00000000E+00  0.00000000E+00
  0.00000000E+00  0.00000000E+00  0.00000000E+00
  0.00000000E+00  0.00000000E+00  0.00000000E+00
  0.00000000E+00  0.00000000E+00  0.00000000E+00
  0.00000000E+00  0.00000000E+00  0.00000000E+00
  0.00000000E+00  0.00000000E+00  0.00000000E+00
  0.00000000E+00  0.00000000E+00  0.00000000E+00
  0.00000000E+00  0.00000000E+00  0.00000000E+00
