Graphene-B4C3 Top with lattice parameter
   1.00000000000000     
     4.1975662536106775    2.4232491628242956    0.0291235845676738
    -4.1981141132408064    2.4241970411501623    0.0057780646351453
     0.0427086042429424    0.1104487384288854    6.2449535036760819
   B    C 
     4    11
Direct
  0.0003850016427473 -0.0026949141396933  0.0073565671983315
  0.3609822235411215  0.0050798931612281 -0.0151337775457986
 -0.0006491553951698  0.3572481407893862 -0.0150539567474420
  0.6468241601870989  0.6445752084528942 -0.0153783739276244
  0.3322740436396566  0.3245571911013943 -0.0100290661726832
  0.6810182546605580  0.0099359256727792 -0.0083972392976186
 -0.0033926461607038  0.6739495878180732 -0.0081173050902071
  0.0019218694480685  0.5016189471713164  0.4319212971159675
  0.1679215991562110  0.3327006569101467  0.4302253383590524
  0.0013890928034967  0.0007407851106171  0.4290291410645798
  0.1671639991231177  0.8345682571871240  0.4304548709993020
  0.5006745510222451  0.5007182552113536  0.4318917065810781
  0.6682793229340146  0.3340853914168514  0.4290963437441230
  0.5014598135024425  0.0002170883323737  0.4320801578550378
  0.6697085365617871  0.8354669191374816  0.4303669625305914
 
  0.00000000E+00  0.00000000E+00  0.00000000E+00
  0.00000000E+00  0.00000000E+00  0.00000000E+00
  0.00000000E+00  0.00000000E+00  0.00000000E+00
  0.00000000E+00  0.00000000E+00  0.00000000E+00
  0.00000000E+00  0.00000000E+00  0.00000000E+00
  0.00000000E+00  0.00000000E+00  0.00000000E+00
  0.00000000E+00  0.00000000E+00  0.00000000E+00
  0.00000000E+00  0.00000000E+00  0.00000000E+00
  0.00000000E+00  0.00000000E+00  0.00000000E+00
  0.00000000E+00  0.00000000E+00  0.00000000E+00
  0.00000000E+00  0.00000000E+00  0.00000000E+00
  0.00000000E+00  0.00000000E+00  0.00000000E+00
  0.00000000E+00  0.00000000E+00  0.00000000E+00
  0.00000000E+00  0.00000000E+00  0.00000000E+00
  0.00000000E+00  0.00000000E+00  0.00000000E+00
