Graphene-BC3 Bridge with lattice paramet
   1.00000000000000     
     4.3820885431492584    2.5299999999999994    0.0000000000000000
    -4.3820885431492584    2.5299999999999994    0.0000000000000000
     0.0000000000000000    0.0000000000000000   15.0000000000000000
   B    C 
     2    14
Direct
  0.3277629817477580  0.6804866048026653  0.1007619720901462
  0.6614752326959250  0.3468403947567559  0.1007022389387983
  0.1543605325246138  0.3328738671450137  0.1004106690553510
  0.3137947882629978  0.1733755770022769  0.1004666041384029
  0.1539603817616943  0.8543580126464433  0.1005234154924782
  0.8352573290166037  0.1729708381765062  0.1003753009198512
  0.6753813108239299  0.8539247760672785  0.1004106364182327
  0.8349478516704116  0.6945396413549013  0.1004716478634385
  0.2604054559202788  0.2387861617668952  0.3259829636461577
  0.4269737005124180  0.0721885352356420  0.3259267444462086
  0.2603020030669478  0.7389136124897199  0.3256496757704492
  0.4270713551824903  0.5721269904039545  0.3256006828690926
  0.7604299406975304  0.2387836314503352  0.3255939824022580
  0.9270955604720239  0.0721077240925681  0.3258889685581438
  0.7604181033705204  0.7388043583226077  0.3259868586601444
  0.9270221389405610  0.5722446076197586  0.3259143053975037
 
  0.00000000E+00  0.00000000E+00  0.00000000E+00
  0.00000000E+00  0.00000000E+00  0.00000000E+00
  0.00000000E+00  0.00000000E+00  0.00000000E+00
  0.00000000E+00  0.00000000E+00  0.00000000E+00
  0.00000000E+00  0.00000000E+00  0.00000000E+00
  0.00000000E+00  0.00000000E+00  0.00000000E+00
  0.00000000E+00  0.00000000E+00  0.00000000E+00
  0.00000000E+00  0.00000000E+00  0.00000000E+00
  0.00000000E+00  0.00000000E+00  0.00000000E+00
  0.00000000E+00  0.00000000E+00  0.00000000E+00
  0.00000000E+00  0.00000000E+00  0.00000000E+00
  0.00000000E+00  0.00000000E+00  0.00000000E+00
  0.00000000E+00  0.00000000E+00  0.00000000E+00
  0.00000000E+00  0.00000000E+00  0.00000000E+00
  0.00000000E+00  0.00000000E+00  0.00000000E+00
  0.00000000E+00  0.00000000E+00  0.00000000E+00
