Graphene-B4C3 Hollow 1 with lattice para
   1.00000000000000     
     4.2019552591620952    2.4259999999999993    0.0000000000000000
    -4.2019552591620952    2.4259999999999993    0.0000000000000000
     0.0000000000000000    0.0000000000000000   15.0000000000000000
   B    C 
     4    11
Direct
  0.0044968708748800  0.0025572751972341  0.1044653948262159
  0.3592573847995623  0.0023722039881833  0.1006902776126214
  0.0047023691971897  0.3572919272437819  0.1010356320925851
  0.6499701541368111  0.6475694085339606  0.1009243958008333
  0.3284761706248578  0.3262455875176596  0.1014299846365538
  0.6806954116612464  0.0022817971895401  0.1017209028779225
  0.0045723072575559  0.6786169113042139  0.1014660023155447
  0.1107283015531607  0.3891946199783225  0.3374692546178666
  0.2773951204511669  0.2224883827344594  0.3375904347229248
  0.1107535889286479  0.8892375566113397  0.3375606978472908
  0.2774263806179033  0.7225303716722176  0.3374440851438060
  0.6107503041079066  0.3892126311155509  0.3374556602886820
  0.7774326973086932  0.2225177926348801  0.3374657448117288
  0.6107665573660621  0.8892236189402252  0.3375556412559272
  0.7774259366699057  0.7225383597828997  0.3375052244828183
 
  0.00000000E+00  0.00000000E+00  0.00000000E+00
  0.00000000E+00  0.00000000E+00  0.00000000E+00
  0.00000000E+00  0.00000000E+00  0.00000000E+00
  0.00000000E+00  0.00000000E+00  0.00000000E+00
  0.00000000E+00  0.00000000E+00  0.00000000E+00
  0.00000000E+00  0.00000000E+00  0.00000000E+00
  0.00000000E+00  0.00000000E+00  0.00000000E+00
  0.00000000E+00  0.00000000E+00  0.00000000E+00
  0.00000000E+00  0.00000000E+00  0.00000000E+00
  0.00000000E+00  0.00000000E+00  0.00000000E+00
  0.00000000E+00  0.00000000E+00  0.00000000E+00
  0.00000000E+00  0.00000000E+00  0.00000000E+00
  0.00000000E+00  0.00000000E+00  0.00000000E+00
  0.00000000E+00  0.00000000E+00  0.00000000E+00
  0.00000000E+00  0.00000000E+00  0.00000000E+00
