Graphene-B4C3 Hollow 1 with lattice para
   1.00000000000000     
     4.2019552591620952    2.4259999999999993    0.0000000000000000
    -4.2019552591620952    2.4259999999999993    0.0000000000000000
     0.0000000000000000    0.0000000000000000   15.0000000000000000
   B    C 
     4    11
Direct
  0.0041606243907067  0.0026836802172956  0.1196679842125890
  0.3563092983096877  0.0028232558166594  0.0976638812901618
  0.0042137346607639  0.3549799763909133  0.0976944954099932
  0.6520106776089133  0.6505979222295345  0.0976717509638879
  0.3263372324635044  0.3248878557981152  0.1003093557413529
  0.6821631054317548  0.0027877915498590  0.1003020716725621
  0.0041955993811323  0.6805977349980146  0.1002741710475164
  0.1110739523021881  0.3889408032415042  0.3372735757499752
  0.2778469595073504  0.2222838952266682  0.3373113225502131
  0.1112054796530410  0.8889556823956357  0.3372793773866626
  0.2778748012149519  0.7222200903490735  0.3372356293849729
  0.6110907874331646  0.3888621081438368  0.3372331166125861
  0.7777569239514560  0.2222454467888309  0.3372783372357823
  0.6110168327406719  0.8888630380853075  0.3373055733456839
  0.7775935465062629  0.7221491632132196  0.3372786907293814
 
  0.00000000E+00  0.00000000E+00  0.00000000E+00
  0.00000000E+00  0.00000000E+00  0.00000000E+00
  0.00000000E+00  0.00000000E+00  0.00000000E+00
  0.00000000E+00  0.00000000E+00  0.00000000E+00
  0.00000000E+00  0.00000000E+00  0.00000000E+00
  0.00000000E+00  0.00000000E+00  0.00000000E+00
  0.00000000E+00  0.00000000E+00  0.00000000E+00
  0.00000000E+00  0.00000000E+00  0.00000000E+00
  0.00000000E+00  0.00000000E+00  0.00000000E+00
  0.00000000E+00  0.00000000E+00  0.00000000E+00
  0.00000000E+00  0.00000000E+00  0.00000000E+00
  0.00000000E+00  0.00000000E+00  0.00000000E+00
  0.00000000E+00  0.00000000E+00  0.00000000E+00
  0.00000000E+00  0.00000000E+00  0.00000000E+00
  0.00000000E+00  0.00000000E+00  0.00000000E+00
