Graphene-B4C3 Hollow 1 with lattice para
   1.00000000000000     
     4.1924289797204670    2.4205000000000001    0.0000000000000000
    -4.1924289797204670    2.4205000000000001    0.0000000000000000
     0.0000000000000000    0.0000000000000000   15.0000000000000000
   B    C 
     4    11
Direct
  0.0084269178564666 -0.0011661743125854  0.0998540309053793
  0.3635782624966822 -0.0012983284256646  0.1014345234259028
  0.0085900446677590  0.3540380659622873  0.1014889568056678
  0.6537370299994669  0.6436947363970643  0.1014674158377347
  0.3324859512120285  0.3225497995806897  0.1011657578981271
  0.6849755865127375 -0.0012804320984690  0.1014819115646654
  0.0086609580002784  0.6751072056691978  0.1011809187089399
  0.1072846728248763  0.3923763664989516  0.3379350431757965
  0.2738863292994652  0.2256605223124515  0.3380197165691734
  0.1072121745726442  0.8923682632322113  0.3379390820895967
  0.2738734917408969  0.7257465825509546  0.3379285267726513
  0.6071586818771051  0.3923776836003205  0.3379072189502018
  0.7738506062887012  0.2256638097677665  0.3379853368260184
  0.6072062597414281  0.8923276936173141  0.3380461396238860
  0.7739225884650137  0.7257126500919773  0.3379447541795801
 
  0.00000000E+00  0.00000000E+00  0.00000000E+00
  0.00000000E+00  0.00000000E+00  0.00000000E+00
  0.00000000E+00  0.00000000E+00  0.00000000E+00
  0.00000000E+00  0.00000000E+00  0.00000000E+00
  0.00000000E+00  0.00000000E+00  0.00000000E+00
  0.00000000E+00  0.00000000E+00  0.00000000E+00
  0.00000000E+00  0.00000000E+00  0.00000000E+00
  0.00000000E+00  0.00000000E+00  0.00000000E+00
  0.00000000E+00  0.00000000E+00  0.00000000E+00
  0.00000000E+00  0.00000000E+00  0.00000000E+00
  0.00000000E+00  0.00000000E+00  0.00000000E+00
  0.00000000E+00  0.00000000E+00  0.00000000E+00
  0.00000000E+00  0.00000000E+00  0.00000000E+00
  0.00000000E+00  0.00000000E+00  0.00000000E+00
  0.00000000E+00  0.00000000E+00  0.00000000E+00
