Graphene-B4C3 Hollow 1 with lattice para
   1.00000000000000     
     4.1924289797204670    2.4205000000000001    0.0000000000000000
    -4.1924289797204670    2.4205000000000001    0.0000000000000000
     0.0000000000000000    0.0000000000000000   15.0000000000000000
   B    C 
     4    11
Direct
  0.0081140959071752 -0.0009019323846229  0.0995169270191882
  0.3632198445163997 -0.0010122841085961  0.1014914926903250
  0.0082934230123435  0.3542927307318094  0.1015649367810890
  0.6534680499599528  0.6440255902921238  0.1015374041984524
  0.3321982754339379  0.3228434759158743  0.1011826486074048
  0.6846748755226315 -0.0010106554296579  0.1014184714496836
  0.0083340462849311  0.6753412549409390  0.1012011458984863
  0.1075324951996913  0.3921460073142169  0.3379539342609472
  0.2741741967398580  0.2254349035249900  0.3380418646830566
  0.1074971240223413  0.8921436566600711  0.3379703138843426
  0.2741689368472988  0.7254805542540009  0.3379492482647337
  0.6074333188532027  0.3921284897741257  0.3379330462790352
  0.7741202439696859  0.2254113322023776  0.3379949449779103
  0.6074637445935752  0.8921127141952726  0.3380569650261133
  0.7741568846925245  0.7254426065615430  0.3379659893125529
 
  0.00000000E+00  0.00000000E+00  0.00000000E+00
  0.00000000E+00  0.00000000E+00  0.00000000E+00
  0.00000000E+00  0.00000000E+00  0.00000000E+00
  0.00000000E+00  0.00000000E+00  0.00000000E+00
  0.00000000E+00  0.00000000E+00  0.00000000E+00
  0.00000000E+00  0.00000000E+00  0.00000000E+00
  0.00000000E+00  0.00000000E+00  0.00000000E+00
  0.00000000E+00  0.00000000E+00  0.00000000E+00
  0.00000000E+00  0.00000000E+00  0.00000000E+00
  0.00000000E+00  0.00000000E+00  0.00000000E+00
  0.00000000E+00  0.00000000E+00  0.00000000E+00
  0.00000000E+00  0.00000000E+00  0.00000000E+00
  0.00000000E+00  0.00000000E+00  0.00000000E+00
  0.00000000E+00  0.00000000E+00  0.00000000E+00
  0.00000000E+00  0.00000000E+00  0.00000000E+00
