BC3 with lattice parameter 5.169        
   1.00000000000000     
     4.4764850000000003    2.5844999999999998    0.0000000000000000
    -4.4764850000000003    2.5844999999999998    0.0000000000000000
     0.0000000000000000    0.0000000000000000   15.0000000000000000
   B    C 
     2     6
Direct
  0.3383342384933132  0.6691651112883189  0.2500000000000000
  0.6716663001108046  0.3358318575794133  0.2500000000000000
  0.1637457419951359  0.3199992161058423  0.2500000000000000
  0.3224993075361434  0.1612501330342737  0.2500000000000000
  0.1637540125380591  0.8437492238487725  0.2500000000000000
  0.8462444352165450  0.1612505447674093  0.2500000000000000
  0.6875002147423972  0.8437502741098674  0.2500000000000000
  0.8462517493676035  0.6849996392661017  0.2500000000000000
 
  0.00000000E+00  0.00000000E+00  0.00000000E+00
  0.00000000E+00  0.00000000E+00  0.00000000E+00
  0.00000000E+00  0.00000000E+00  0.00000000E+00
  0.00000000E+00  0.00000000E+00  0.00000000E+00
  0.00000000E+00  0.00000000E+00  0.00000000E+00
  0.00000000E+00  0.00000000E+00  0.00000000E+00
  0.00000000E+00  0.00000000E+00  0.00000000E+00
  0.00000000E+00  0.00000000E+00  0.00000000E+00
