Graphene-Borophene Hollow 2 with lattice
   1.00000000000000     
     4.3214667648843470    2.4949999999999992    0.0000000000000000
    -4.3214667648843470    2.4949999999999992    0.0000000000000000
     0.0000000000000000    0.0000000000000000   15.0000000000000000
   B    C 
     8     8
Direct
  0.6694785197163089 -0.0000459170260725  0.1668726149299253
  0.3304745632576210 -0.0000459170260725  0.1668726149299253
  0.0000459170260725  0.3305204802836936  0.1668726149299253
  0.0000459170260725  0.6695244367423819  0.1668726149299253
  0.3304745632576210  0.3305204802836936  0.1668726149299253
  0.6694785197163089  0.6695244367423819  0.1668726149299253
  0.6666659999999993  0.3333330000000032  0.1627776772565752
  0.3333330000000032  0.6666659999999993  0.1715447247195185
  0.3333482765976908  0.1666741382988525  0.4036431089731438
  0.5000198980247681  0.0000397960495357  0.4037113466634439
  0.3333326666666636  0.6666663333333389  0.4036470035835462
  0.5000198980247681  0.4999791019752347  0.4037113466634439
  0.8333248617011496  0.1666741382988525  0.4036431089731438
  0.9999996666666675  0.9999993333333350  0.4035315379510370
  0.8333248617011496  0.6666507234023117  0.4036431089731438
 -0.0000407960495333  0.4999791019752347  0.4037113466634439
 
  0.00000000E+00  0.00000000E+00  0.00000000E+00
  0.00000000E+00  0.00000000E+00  0.00000000E+00
  0.00000000E+00  0.00000000E+00  0.00000000E+00
  0.00000000E+00  0.00000000E+00  0.00000000E+00
  0.00000000E+00  0.00000000E+00  0.00000000E+00
  0.00000000E+00  0.00000000E+00  0.00000000E+00
  0.00000000E+00  0.00000000E+00  0.00000000E+00
  0.00000000E+00  0.00000000E+00  0.00000000E+00
  0.00000000E+00  0.00000000E+00  0.00000000E+00
  0.00000000E+00  0.00000000E+00  0.00000000E+00
  0.00000000E+00  0.00000000E+00  0.00000000E+00
  0.00000000E+00  0.00000000E+00  0.00000000E+00
  0.00000000E+00  0.00000000E+00  0.00000000E+00
  0.00000000E+00  0.00000000E+00  0.00000000E+00
  0.00000000E+00  0.00000000E+00  0.00000000E+00
  0.00000000E+00  0.00000000E+00  0.00000000E+00
