Graphene-B4C3 Hollow 2 with lattice para
   1.00000000000000     
     4.2071514115848023    2.4289999999999998    0.0000000000000000
    -4.2071514115848023    2.4289999999999998    0.0000000000000000
     0.0000000000000000    0.0000000000000000   15.0000000000000000
   B    C 
     4    11
Direct
  0.0044146566489496  0.0029346771753900  0.0997151816000088
  0.3595645080561470  0.0029401889135652  0.1009063797834565
  0.0044227341847863  0.3580843666455851  0.1009084648434462
  0.6492752136549919  0.6477928725219835  0.1009137983940697
  0.3279802699109777  0.3264955021496354  0.1007020529031355
  0.6808680826390505  0.0029456758957489  0.1007095948502340
  0.0044298457419490  0.6793850057745384  0.1007115311542894
  0.1664385500365399  0.3331892520072517  0.3383601973894997
  0.3331249021268631  0.1665034149097706  0.3383619310184424
  0.1664771888201880  0.8332096044577533  0.3383644633616558
  0.3331268643468433  0.6665249004972645  0.3382545502654330
  0.6664597207106238  0.3331902726188118  0.3382546130972911
  0.8331443595359572  0.1665410397655278  0.3383636594618134
  0.6664599383048991  0.8331724125498828  0.3383604046895952
  0.8331071652812413  0.6665248141173030  0.3383591771876552
 
  0.00000000E+00  0.00000000E+00  0.00000000E+00
  0.00000000E+00  0.00000000E+00  0.00000000E+00
  0.00000000E+00  0.00000000E+00  0.00000000E+00
  0.00000000E+00  0.00000000E+00  0.00000000E+00
  0.00000000E+00  0.00000000E+00  0.00000000E+00
  0.00000000E+00  0.00000000E+00  0.00000000E+00
  0.00000000E+00  0.00000000E+00  0.00000000E+00
  0.00000000E+00  0.00000000E+00  0.00000000E+00
  0.00000000E+00  0.00000000E+00  0.00000000E+00
  0.00000000E+00  0.00000000E+00  0.00000000E+00
  0.00000000E+00  0.00000000E+00  0.00000000E+00
  0.00000000E+00  0.00000000E+00  0.00000000E+00
  0.00000000E+00  0.00000000E+00  0.00000000E+00
  0.00000000E+00  0.00000000E+00  0.00000000E+00
  0.00000000E+00  0.00000000E+00  0.00000000E+00
