Graphene-BC3 Hollow with lattice paramet
   1.00000000000000     
     4.4167295593006353    2.5499999999999989    0.0000000000000000
    -4.4167295593006353    2.5499999999999989    0.0000000000000000
     0.0000000000000000    0.0000000000000000   15.0000000000000000
   B    C 
     2    14
Direct
  0.3383311639181495  0.6691651523194174  0.1002781164290932
  0.6716662497994683  0.3358328913048613  0.0999649998979542
  0.1642546150962581  0.3210142066006227  0.0999525485246617
  0.3234335221995507  0.1617162529255202  0.0999600391243132
  0.1642548004218849  0.8432403950560396  0.0999525853861986
  0.8457773644343697  0.1617155406567544  0.0999587563159235
  0.6864749965872026  0.8432374313587775  0.0999511030761916
  0.8457774775658000  0.6840607071755493  0.0999587779234006
  0.3333552681040188  0.1666774537335444  0.3255865556882739
  0.5000456485226183  0.0000925699424124  0.3255642259941467
  0.3333340709851244  0.6666668560907708  0.3252768741909423
  0.5000456490771040  0.4999526994957207  0.3255642273456008
  0.8333285889286509  0.1666790892602371  0.3255818503416331
  0.0000047478049699  0.0000021827336682  0.3255693118501377
  0.8333285875567435  0.6666491362359456  0.3255818497189110
  0.9999125823314203  0.4999561017768526  0.3255648448592898
 
  0.00000000E+00  0.00000000E+00  0.00000000E+00
  0.00000000E+00  0.00000000E+00  0.00000000E+00
  0.00000000E+00  0.00000000E+00  0.00000000E+00
  0.00000000E+00  0.00000000E+00  0.00000000E+00
  0.00000000E+00  0.00000000E+00  0.00000000E+00
  0.00000000E+00  0.00000000E+00  0.00000000E+00
  0.00000000E+00  0.00000000E+00  0.00000000E+00
  0.00000000E+00  0.00000000E+00  0.00000000E+00
  0.00000000E+00  0.00000000E+00  0.00000000E+00
  0.00000000E+00  0.00000000E+00  0.00000000E+00
  0.00000000E+00  0.00000000E+00  0.00000000E+00
  0.00000000E+00  0.00000000E+00  0.00000000E+00
  0.00000000E+00  0.00000000E+00  0.00000000E+00
  0.00000000E+00  0.00000000E+00  0.00000000E+00
  0.00000000E+00  0.00000000E+00  0.00000000E+00
  0.00000000E+00  0.00000000E+00  0.00000000E+00
