Graphene-Borophene Hollow 1 with lattice
   1.00000000000000     
     4.3128065108465030    2.4899999999999993    0.0000000000000000
    -4.3128065108465030    2.4899999999999993    0.0000000000000000
     0.0000000000000000    0.0000000000000000   15.0000000000000000
   B    C 
     8     8
Direct
  0.6721871208659291 -0.0029798974316717  0.1667254071171806
  0.3336110657457838 -0.0028604160482292  0.1667680282212123
  0.0029798974316717  0.3278118791340732  0.1667254071171806
  0.0028604160482292  0.6663879342542183  0.1667680282212123
  0.3334782976573697  0.3276568622303510  0.1664757088459641
  0.6723421377696516  0.6665207023426328  0.1664757088459641
  0.6694343928006138  0.3305646071993882  0.1594369137360833
  0.3361714915491649  0.6638275084508378  0.1741237888057876
  0.2749084901690741  0.2251124535001709  0.4029163652931214
  0.4415811857252580  0.0584899172159830  0.4029248726512352
  0.2748840342788382  0.7251149657211640  0.4029019425365525
  0.4415952934774209  0.5584037065225824  0.4029768910386122
  0.7748897554006191  0.2251092445993840  0.4029176829881417
  0.9415626806854567  0.0584363193145458  0.4028220166374056
  0.7748865464998318  0.7250905098309285  0.4029163652931214
  0.9415090827840196  0.5584178142747450  0.4029248726512352
 
  0.00000000E+00  0.00000000E+00  0.00000000E+00
  0.00000000E+00  0.00000000E+00  0.00000000E+00
  0.00000000E+00  0.00000000E+00  0.00000000E+00
  0.00000000E+00  0.00000000E+00  0.00000000E+00
  0.00000000E+00  0.00000000E+00  0.00000000E+00
  0.00000000E+00  0.00000000E+00  0.00000000E+00
  0.00000000E+00  0.00000000E+00  0.00000000E+00
  0.00000000E+00  0.00000000E+00  0.00000000E+00
  0.00000000E+00  0.00000000E+00  0.00000000E+00
  0.00000000E+00  0.00000000E+00  0.00000000E+00
  0.00000000E+00  0.00000000E+00  0.00000000E+00
  0.00000000E+00  0.00000000E+00  0.00000000E+00
  0.00000000E+00  0.00000000E+00  0.00000000E+00
  0.00000000E+00  0.00000000E+00  0.00000000E+00
  0.00000000E+00  0.00000000E+00  0.00000000E+00
  0.00000000E+00  0.00000000E+00  0.00000000E+00
