Graphene-B4C3 Bridge with lattice parame
   1.00000000000000     
     4.1993571829507426    2.4245000000000001    0.0000000000000000
    -4.1993571829507426    2.4245000000000001    0.0000000000000000
     0.0000000000000000    0.0000000000000000   15.0000000000000000
   B    C 
     4    11
Direct
  0.0063590513963437  0.0006827345576995  0.1006707276557481
  0.3614638589645232  0.0007173633275097  0.1012679076154354
  0.0063095596519926  0.3558062706608108  0.1015567214891689
  0.6514196798734004  0.6455150543140810  0.1014646801101440
  0.3301564804224182  0.3241255787903382  0.1012932251976938
  0.6829425842401169  0.0008376428252350  0.1011725440222109
  0.0063732011657453  0.6770365952778873  0.1013104876380845
  0.0813970440927465  0.4185241445672090  0.3370328213029171
  0.2480668024894444  0.2518839914552198  0.3371906338854357
  0.0814129614196617  0.9185195641781411  0.3371139676495067
  0.2481260240361239  0.7518671303816558  0.3370432708865937
  0.5813477153188520  0.4184888803184301  0.3370545445846057
  0.7479943149075584  0.2518003674555252  0.3370050870351960
  0.5813147627374192  0.9184777419750128  0.3371272788110722
  0.7479432926169751  0.7518176065819420  0.3370754354495231
 
  0.00000000E+00  0.00000000E+00  0.00000000E+00
  0.00000000E+00  0.00000000E+00  0.00000000E+00
  0.00000000E+00  0.00000000E+00  0.00000000E+00
  0.00000000E+00  0.00000000E+00  0.00000000E+00
  0.00000000E+00  0.00000000E+00  0.00000000E+00
  0.00000000E+00  0.00000000E+00  0.00000000E+00
  0.00000000E+00  0.00000000E+00  0.00000000E+00
  0.00000000E+00  0.00000000E+00  0.00000000E+00
  0.00000000E+00  0.00000000E+00  0.00000000E+00
  0.00000000E+00  0.00000000E+00  0.00000000E+00
  0.00000000E+00  0.00000000E+00  0.00000000E+00
  0.00000000E+00  0.00000000E+00  0.00000000E+00
  0.00000000E+00  0.00000000E+00  0.00000000E+00
  0.00000000E+00  0.00000000E+00  0.00000000E+00
  0.00000000E+00  0.00000000E+00  0.00000000E+00
