Graphene-Borophene Hollow 2 with lattice
   1.00000000000000     
     4.3076103584237977    2.4870000000000001    0.0000000000000000
    -4.3076103584237977    2.4870000000000001    0.0000000000000000
     0.0000000000000000    0.0000000000000000   15.0000000000000000
   B    C 
     8     8
Direct
  0.6691551829648370 -0.0000882446564423  0.1670360380324018
  0.3307555723787237 -0.0000882446564423  0.1670360380324018
  0.0000882446564423  0.3308438170351660  0.1670360380324018
  0.0000882446564423  0.6692434276212790  0.1670360380324018
  0.3307555723787237  0.3308438170351660  0.1670360380324018
  0.6691551829648370  0.6692434276212790  0.1670360380324018
  0.6666659999999993  0.3333330000000032  0.1571080402663630
  0.3333330000000032  0.6666659999999993  0.1775657081861260
  0.3333610079150006  0.1666805039575074  0.4034660965736109
  0.5000242291299812  0.0000484582599629  0.4035556393942684
  0.3333326666666636  0.6666663333333389  0.4035147374313660
  0.5000242291299812  0.4999747708700206  0.4035556393942684
  0.8333184960424950  0.1666805039575074  0.4034660965736110
  0.9999996666666675  0.9999993333333350  0.4033300780180876
  0.8333184960424950  0.6666379920850023  0.4034660965736110
 -0.0000494582599606  0.4999747708700206  0.4035556393942685
 
  0.00000000E+00  0.00000000E+00  0.00000000E+00
  0.00000000E+00  0.00000000E+00  0.00000000E+00
  0.00000000E+00  0.00000000E+00  0.00000000E+00
  0.00000000E+00  0.00000000E+00  0.00000000E+00
  0.00000000E+00  0.00000000E+00  0.00000000E+00
  0.00000000E+00  0.00000000E+00  0.00000000E+00
  0.00000000E+00  0.00000000E+00  0.00000000E+00
  0.00000000E+00  0.00000000E+00  0.00000000E+00
  0.00000000E+00  0.00000000E+00  0.00000000E+00
  0.00000000E+00  0.00000000E+00  0.00000000E+00
  0.00000000E+00  0.00000000E+00  0.00000000E+00
  0.00000000E+00  0.00000000E+00  0.00000000E+00
  0.00000000E+00  0.00000000E+00  0.00000000E+00
  0.00000000E+00  0.00000000E+00  0.00000000E+00
  0.00000000E+00  0.00000000E+00  0.00000000E+00
  0.00000000E+00  0.00000000E+00  0.00000000E+00
