Graphene-Borophene Hollow 2 with lattice
   1.00000000000000     
     4.3076103584237977    2.4870000000000001    0.0000000000000000
    -4.3076103584237977    2.4870000000000001    0.0000000000000000
     0.0000000000000000    0.0000000000000000   15.0000000000000000
   B    C 
     8     8
Direct
  0.6696554667298749 -0.0001214987321666  0.1627778939501046
  0.3302220345379613 -0.0001214987321666  0.1627778939501046
  0.0001214987321666  0.3303435332701279  0.1627778939501046
  0.0001214987321666  0.6697769654620410  0.1627778939501046
  0.3302220345379613  0.3303435332701279  0.1627778939501046
  0.6696554667298749  0.6697769654620410  0.1627778939501046
  0.6666659999999993  0.3333330000000032  0.1568012581759031
  0.3333330000000032  0.6666659999999993  0.1799998066335410
  0.3400840662526986  0.1700420331263564  0.4069147830907022
  0.4986704101194643 -0.0026591797610711  0.4059399054216974
  0.3333326666666636  0.6666663333333389  0.4048780257037841
  0.4986704101194643  0.5013285898805380  0.4059399054216974
  0.8299569668736460  0.1700420331263564  0.4069147830907022
  0.9999996666666675  0.9999993333333350  0.4078894802489358
  0.8299569668736460  0.6599149337473039  0.4069147830907022
  0.0026581797610733  0.5013285898805380  0.4059399054216975
 
  0.00000000E+00  0.00000000E+00  0.00000000E+00
  0.00000000E+00  0.00000000E+00  0.00000000E+00
  0.00000000E+00  0.00000000E+00  0.00000000E+00
  0.00000000E+00  0.00000000E+00  0.00000000E+00
  0.00000000E+00  0.00000000E+00  0.00000000E+00
  0.00000000E+00  0.00000000E+00  0.00000000E+00
  0.00000000E+00  0.00000000E+00  0.00000000E+00
  0.00000000E+00  0.00000000E+00  0.00000000E+00
  0.00000000E+00  0.00000000E+00  0.00000000E+00
  0.00000000E+00  0.00000000E+00  0.00000000E+00
  0.00000000E+00  0.00000000E+00  0.00000000E+00
  0.00000000E+00  0.00000000E+00  0.00000000E+00
  0.00000000E+00  0.00000000E+00  0.00000000E+00
  0.00000000E+00  0.00000000E+00  0.00000000E+00
  0.00000000E+00  0.00000000E+00  0.00000000E+00
  0.00000000E+00  0.00000000E+00  0.00000000E+00
