Graphene-B4C3 Bridge with lattice parame
   1.00000000000000     
     4.1924289797204670    2.4205000000000001    0.0000000000000000
    -4.1924289797204670    2.4205000000000001    0.0000000000000000
     0.0000000000000000    0.0000000000000000   15.0000000000000000
   B    C 
     4    11
Direct
  0.0203995297423056 -0.0129791088149296  0.1012828522709378
  0.3757368676623358 -0.0128655596767034  0.1011175469982142
  0.0202343937832047  0.3423650130684667  0.1011017895626950
  0.6654320420455111  0.6319900319256174  0.1011185252651445
  0.3442593164897541  0.3106082190879914  0.1009420871656919
  0.6973219112259698 -0.0124461772799749  0.1010348355400387
  0.0207995005069877  0.6639286663373315  0.1009834976087443
  0.0689705776069603  0.4302659355082847  0.3371567450285478
  0.2356532804858143  0.2636401146192279  0.3373340083489414
  0.0690306761425062  0.9303245835985895  0.3371926024006170
  0.2357515863337397  0.7636087745360921  0.3372506496798675
  0.5689781622216176  0.4302621512968274  0.3371847688824676
  0.7356345059697683  0.2636121972741002  0.3371819060588264
  0.5689092005252295  0.9302423550038895  0.3372449067341529
  0.7355157825916169  0.7635434701818860  0.3372526117884490
 
  0.00000000E+00  0.00000000E+00  0.00000000E+00
  0.00000000E+00  0.00000000E+00  0.00000000E+00
  0.00000000E+00  0.00000000E+00  0.00000000E+00
  0.00000000E+00  0.00000000E+00  0.00000000E+00
  0.00000000E+00  0.00000000E+00  0.00000000E+00
  0.00000000E+00  0.00000000E+00  0.00000000E+00
  0.00000000E+00  0.00000000E+00  0.00000000E+00
  0.00000000E+00  0.00000000E+00  0.00000000E+00
  0.00000000E+00  0.00000000E+00  0.00000000E+00
  0.00000000E+00  0.00000000E+00  0.00000000E+00
  0.00000000E+00  0.00000000E+00  0.00000000E+00
  0.00000000E+00  0.00000000E+00  0.00000000E+00
  0.00000000E+00  0.00000000E+00  0.00000000E+00
  0.00000000E+00  0.00000000E+00  0.00000000E+00
  0.00000000E+00  0.00000000E+00  0.00000000E+00
