Graphene-Borophene Hollow 1 with lattice
   1.00000000000000     
     4.3206007394805637    2.4944999999999999    0.0000000000000000
    -4.3206007394805637    2.4944999999999999    0.0000000000000000
     0.0000000000000000    0.0000000000000000   15.0000000000000000
   B    C 
     8     8
Direct
  0.6756870325831157 -0.0062229341396862  0.1670583113156641
  0.3369733560525302 -0.0062514507002529  0.1669198810782763
  0.0062229341396862  0.3243119674168870  0.1670583113156641
  0.0062514507002529  0.6630256439474724  0.1669198810782763
  0.3369169615658256  0.3243446436227955  0.1669368697950163
  0.6756543563772071  0.6630820384341770  0.1669368697950163
  0.6727099785640401  0.3272890214359631  0.1594099156661466
  0.3394953019621049  0.6605036980378978  0.1733356982294872
  0.2715643562064267  0.2284933511972997  0.4026837431185761
  0.4382169444701052  0.0618175889391119  0.4028426261154923
  0.2715408950085130  0.7284581049914896  0.4029197938202554
  0.4382685565839175  0.5617304434160847  0.4028363516078833
  0.7715184125134130  0.2284805874865897  0.4027971236865315
  0.9381742922982008  0.0618247077018018  0.4026182541436564
  0.7715056488027032  0.7284346437935757  0.4026837431185761
  0.9381814110608907  0.5617820555298976  0.4028426261154923
 
  0.00000000E+00  0.00000000E+00  0.00000000E+00
  0.00000000E+00  0.00000000E+00  0.00000000E+00
  0.00000000E+00  0.00000000E+00  0.00000000E+00
  0.00000000E+00  0.00000000E+00  0.00000000E+00
  0.00000000E+00  0.00000000E+00  0.00000000E+00
  0.00000000E+00  0.00000000E+00  0.00000000E+00
  0.00000000E+00  0.00000000E+00  0.00000000E+00
  0.00000000E+00  0.00000000E+00  0.00000000E+00
  0.00000000E+00  0.00000000E+00  0.00000000E+00
  0.00000000E+00  0.00000000E+00  0.00000000E+00
  0.00000000E+00  0.00000000E+00  0.00000000E+00
  0.00000000E+00  0.00000000E+00  0.00000000E+00
  0.00000000E+00  0.00000000E+00  0.00000000E+00
  0.00000000E+00  0.00000000E+00  0.00000000E+00
  0.00000000E+00  0.00000000E+00  0.00000000E+00
  0.00000000E+00  0.00000000E+00  0.00000000E+00
