Graphene-BC3 Bridge with lattice paramet
   1.00000000000000     
     4.2954860027708150    2.4800000000000000    0.0000000000000000
    -4.2954860027708150    2.4800000000000000    0.0000000000000000
     0.0000000000000000    0.0000000000000000   15.0000000000000000
   B    C 
     2    14
Direct
  0.3274472082534352  0.6804463292354929  0.0996613260449798
  0.6607317877531941  0.3471678885759696  0.0995625721186502
  0.1542343304849911  0.3342466090597508  0.0939998366254102
  0.3143728651152582  0.1739573452685386  0.1045668352557171
  0.1540811520511544  0.8538118126603896  0.1099696899962219
  0.8339702637341680  0.1738699464802147  0.0887668677002451
  0.6736476192544917  0.8536970499489400  0.0942821968662740
  0.8339355342291902  0.6935129849521672  0.1048538646036981
  0.2609631885628371  0.2386173251365930  0.3269382778576592
  0.4275406439331123  0.0720002415217118  0.3269518431076066
  0.2609277091561509  0.7386970396973168  0.3268098003481014
  0.4276302156208419  0.5719589121785030  0.3268477458835446
  0.7609551815249462  0.2386656043236048  0.3267561096862797
  0.9276224290048435  0.0719649661684947  0.3268161941711156
  0.7610093894312976  0.7386644950128957  0.3269383554445397
  0.9275891485567922  0.5720467831127413  0.3269451509566139
 
  0.00000000E+00  0.00000000E+00  0.00000000E+00
  0.00000000E+00  0.00000000E+00  0.00000000E+00
  0.00000000E+00  0.00000000E+00  0.00000000E+00
  0.00000000E+00  0.00000000E+00  0.00000000E+00
  0.00000000E+00  0.00000000E+00  0.00000000E+00
  0.00000000E+00  0.00000000E+00  0.00000000E+00
  0.00000000E+00  0.00000000E+00  0.00000000E+00
  0.00000000E+00  0.00000000E+00  0.00000000E+00
  0.00000000E+00  0.00000000E+00  0.00000000E+00
  0.00000000E+00  0.00000000E+00  0.00000000E+00
  0.00000000E+00  0.00000000E+00  0.00000000E+00
  0.00000000E+00  0.00000000E+00  0.00000000E+00
  0.00000000E+00  0.00000000E+00  0.00000000E+00
  0.00000000E+00  0.00000000E+00  0.00000000E+00
  0.00000000E+00  0.00000000E+00  0.00000000E+00
  0.00000000E+00  0.00000000E+00  0.00000000E+00
