Graphene-Borophene Hollow 1 with lattice
   1.00000000000000     
     4.2868257487329702    2.4749999999999996    0.0000000000000000
    -4.2868257487329702    2.4749999999999996    0.0000000000000000
     0.0000000000000000    0.0000000000000000   15.0000000000000000
   B    C 
     8     8
Direct
  0.6718025368728386 -0.0033053682380420  0.1662931307867478
  0.3343166017746867 -0.0028890326955182  0.1673434004281285
  0.0033053682380420  0.3281964631271634  0.1662931307867478
  0.0028890326955182  0.6656823982253158  0.1673434004281285
  0.3340058476686305  0.3283023580519116  0.1691393092113423
  0.6716966419480910  0.6659931523313721  0.1691393092113423
  0.6693765093098000  0.3306224906902019  0.1808236420291822
  0.3359067462208700  0.6640922537791319  0.1526022430278351
  0.2748832269416224  0.2251302907755381  0.4022579359578212
  0.4414924075704669  0.0585148793307415  0.4023441091401708
  0.2748406857567622  0.7251583142432402  0.4022094582451433
  0.4415376066892353  0.5584613933107674  0.4022141370580995
  0.7749385115655829  0.2250604884344191  0.4022303036425499
  0.9415373357430586  0.0584616642569437  0.4019644449487781
  0.7748687092244642  0.7251157730583804  0.4022579359578212
  0.9414841206692612  0.5585065924295357  0.4023441091401708
 
  0.00000000E+00  0.00000000E+00  0.00000000E+00
  0.00000000E+00  0.00000000E+00  0.00000000E+00
  0.00000000E+00  0.00000000E+00  0.00000000E+00
  0.00000000E+00  0.00000000E+00  0.00000000E+00
  0.00000000E+00  0.00000000E+00  0.00000000E+00
  0.00000000E+00  0.00000000E+00  0.00000000E+00
  0.00000000E+00  0.00000000E+00  0.00000000E+00
  0.00000000E+00  0.00000000E+00  0.00000000E+00
  0.00000000E+00  0.00000000E+00  0.00000000E+00
  0.00000000E+00  0.00000000E+00  0.00000000E+00
  0.00000000E+00  0.00000000E+00  0.00000000E+00
  0.00000000E+00  0.00000000E+00  0.00000000E+00
  0.00000000E+00  0.00000000E+00  0.00000000E+00
  0.00000000E+00  0.00000000E+00  0.00000000E+00
  0.00000000E+00  0.00000000E+00  0.00000000E+00
  0.00000000E+00  0.00000000E+00  0.00000000E+00
