Graphene-Borophene Hollow 1 with lattice
   1.00000000000000     
     4.2695052406572822    2.4649999999999999    0.0000000000000000
    -4.2695052406572822    2.4649999999999999    0.0000000000000000
     0.0000000000000000    0.0000000000000000   15.0000000000000000
   B    C 
     8     8
Direct
  0.6706974742289178 -0.0006653486640150  0.1628675842624408
  0.3328968713996286 -0.0008792548214682  0.1644274260562901
  0.0006653486640150  0.3293015257710844  0.1628675842624408
  0.0008792548214682  0.6671021286003744  0.1644274260562901
  0.3321905902658926  0.3293165012050076  0.1677141174069676
  0.6706824987949943  0.6678084097341099  0.1677141174069676
  0.6673745028020257  0.3326244971979769  0.1823072366752966
  0.3341210945043514  0.6658779054956505  0.1498002937971327
  0.2765948398064663  0.2234823267075957  0.4045269791371939
  0.4432561005212873  0.0567168286134051  0.4041700430703505
  0.2765597949460281  0.7234392050539745  0.4041090181741654
  0.4432746013356117  0.5567243986643907  0.4042601072485734
  0.7765769663828634  0.2234220336171392  0.4043553132000255
  0.9433131057363769  0.0566858942636262  0.4045557310383305
  0.7765166732924066  0.7234041601935365  0.4045269791371939
  0.9432821713865970  0.5567428994787149  0.4041700430703505
 
  0.00000000E+00  0.00000000E+00  0.00000000E+00
  0.00000000E+00  0.00000000E+00  0.00000000E+00
  0.00000000E+00  0.00000000E+00  0.00000000E+00
  0.00000000E+00  0.00000000E+00  0.00000000E+00
  0.00000000E+00  0.00000000E+00  0.00000000E+00
  0.00000000E+00  0.00000000E+00  0.00000000E+00
  0.00000000E+00  0.00000000E+00  0.00000000E+00
  0.00000000E+00  0.00000000E+00  0.00000000E+00
  0.00000000E+00  0.00000000E+00  0.00000000E+00
  0.00000000E+00  0.00000000E+00  0.00000000E+00
  0.00000000E+00  0.00000000E+00  0.00000000E+00
  0.00000000E+00  0.00000000E+00  0.00000000E+00
  0.00000000E+00  0.00000000E+00  0.00000000E+00
  0.00000000E+00  0.00000000E+00  0.00000000E+00
  0.00000000E+00  0.00000000E+00  0.00000000E+00
  0.00000000E+00  0.00000000E+00  0.00000000E+00
