Graphene-B4C3 Top with lattice parameter
   1.00000000000000     
     4.2002232083545250    2.4249999999999989    0.0000000000000000
    -4.2002232083545250    2.4249999999999989    0.0000000000000000
     0.0000000000000000    0.0000000000000000   15.0000000000000000
   B    C 
     4    11
Direct
  0.0040580615879050  0.0027060721445758  0.1011729455145381
  0.3592420266769940  0.0029838956276910  0.1005451564386986
  0.0037609659669082  0.3575897762115990  0.1005459657778252
  0.6491484324455512  0.6475064222260486  0.1005424139199783
  0.3277319629158530  0.3260890652158316  0.1005426085056542
  0.6806469626757754  0.0029831871607253  0.1005444190427297
  0.0037649955538400  0.6789928228226989  0.1005420463533208
  0.0001309759340434  0.5000612843706236  0.3348888398569972
  0.1667892828655369  0.3334587943552890  0.3349225615885195
  0.0001172749078750  0.0000722782990111  0.3348505903883803
  0.1668323615468053  0.8334021098335654  0.3349265626443167
  0.5001300108691046  0.5000997913603286  0.3348915219029312
  0.6667847934252098  0.3334074609459419  0.3347870325762945
  0.5000904352835158  0.0000581011293873  0.3348872685284903
  0.6667321240117758  0.8333562716300076  0.3349227336280077
 
  0.00000000E+00  0.00000000E+00  0.00000000E+00
  0.00000000E+00  0.00000000E+00  0.00000000E+00
  0.00000000E+00  0.00000000E+00  0.00000000E+00
  0.00000000E+00  0.00000000E+00  0.00000000E+00
  0.00000000E+00  0.00000000E+00  0.00000000E+00
  0.00000000E+00  0.00000000E+00  0.00000000E+00
  0.00000000E+00  0.00000000E+00  0.00000000E+00
  0.00000000E+00  0.00000000E+00  0.00000000E+00
  0.00000000E+00  0.00000000E+00  0.00000000E+00
  0.00000000E+00  0.00000000E+00  0.00000000E+00
  0.00000000E+00  0.00000000E+00  0.00000000E+00
  0.00000000E+00  0.00000000E+00  0.00000000E+00
  0.00000000E+00  0.00000000E+00  0.00000000E+00
  0.00000000E+00  0.00000000E+00  0.00000000E+00
  0.00000000E+00  0.00000000E+00  0.00000000E+00
