Graphene-Borophene Hollow 1 with lattice
   1.00000000000000     
     4.3119404854427197    2.4895000000000000    0.0000000000000000
    -4.3119404854427197    2.4895000000000000    0.0000000000000000
     0.0000000000000000    0.0000000000000000   15.0000000000000000
   B    C 
     8     8
Direct
  0.6706486013915399 -0.0015432575099062  0.1669650944150077
  0.3321999162207508 -0.0013696645941277  0.1669357675957231
  0.0015432575099062  0.3293503986084623  0.1669650944150077
  0.0013696645941277  0.6677990837792530  0.1669357675957231
  0.3320548839991657  0.3292378881902851  0.1666487695180018
  0.6707611118097175  0.6679441160008367  0.1666487695180018
  0.6678840829268623  0.3321149170731402  0.1585584080685378
  0.3346004611905271  0.6653985388094747  0.1754976765583581
  0.2764123506980997  0.2236205802534953  0.4026932343242069
  0.4430787857190898  0.0569691340383023  0.4027283037210919
  0.2763801055859750  0.7236188944140267  0.4027051095674428
  0.4430970370489383  0.5569019629510646  0.4027769054100188
  0.7763864583056750  0.2236125416943276  0.4027062418290072
  0.9430568861803492  0.0569421138196530  0.4026133194185831
  0.7763784197465070  0.7235866493019031  0.4026932343242069
  0.9430298659616997  0.5569202142809125  0.4027283037210919
 
  0.00000000E+00  0.00000000E+00  0.00000000E+00
  0.00000000E+00  0.00000000E+00  0.00000000E+00
  0.00000000E+00  0.00000000E+00  0.00000000E+00
  0.00000000E+00  0.00000000E+00  0.00000000E+00
  0.00000000E+00  0.00000000E+00  0.00000000E+00
  0.00000000E+00  0.00000000E+00  0.00000000E+00
  0.00000000E+00  0.00000000E+00  0.00000000E+00
  0.00000000E+00  0.00000000E+00  0.00000000E+00
  0.00000000E+00  0.00000000E+00  0.00000000E+00
  0.00000000E+00  0.00000000E+00  0.00000000E+00
  0.00000000E+00  0.00000000E+00  0.00000000E+00
  0.00000000E+00  0.00000000E+00  0.00000000E+00
  0.00000000E+00  0.00000000E+00  0.00000000E+00
  0.00000000E+00  0.00000000E+00  0.00000000E+00
  0.00000000E+00  0.00000000E+00  0.00000000E+00
  0.00000000E+00  0.00000000E+00  0.00000000E+00
