BC3 with lattice parameter 5.169        
   1.00000000000000     
     4.4764850000000003    2.5844999999999998    0.0000000000000000
    -4.4764850000000003    2.5844999999999998    0.0000000000000000
     0.0000000000000000    0.0000000000000000   15.0000000000000000
   B    C 
     2     6
Direct
  0.3383342120605304  0.6691650846405953  0.2500000000000000
  0.6716663086387563  0.3358318904599220  0.2500000000000000
  0.1637461556448367  0.3199998924562291  0.2500000000000000
  0.3224998944023820  0.1612503078734845  0.2500000000000000
  0.1637542909634025  0.8437488540901048  0.2500000000000000
  0.8462441732823933  0.1612509067677244  0.2500000000000000
  0.6874996042560728  0.8437500748388956  0.2500000000000000
  0.8462513607516282  0.6849989888730436  0.2500000000000000
 
  0.00000000E+00  0.00000000E+00  0.00000000E+00
  0.00000000E+00  0.00000000E+00  0.00000000E+00
  0.00000000E+00  0.00000000E+00  0.00000000E+00
  0.00000000E+00  0.00000000E+00  0.00000000E+00
  0.00000000E+00  0.00000000E+00  0.00000000E+00
  0.00000000E+00  0.00000000E+00  0.00000000E+00
  0.00000000E+00  0.00000000E+00  0.00000000E+00
  0.00000000E+00  0.00000000E+00  0.00000000E+00
