k-points 55
0
Gamma
55    55    1
0    0    0