Graphene-BC3 Hollow with lattice paramet
   1.00000000000000     
     4.3682321366887082    2.5219999999999998    0.0000000000000000
    -4.3682321366887082    2.5219999999999998    0.0000000000000000
     0.0000000000000000    0.0000000000000000   15.0000000000000000
   B    C 
     2    14
Direct
  0.3382231551379222  0.6691072185765010  0.1134985546731997
  0.6715605134791759  0.3357743430318025  0.1131703318575263
  0.1645048051220273  0.3216638179190920  0.1131477773254320
  0.3240371447231747  0.1620121421956464  0.1131592887749306
  0.1645042219236933  0.8428282271337583  0.1131499589783347
  0.8453139972059744  0.1620118947907809  0.1131517193624310
  0.6856598886402174  0.8428230661986696  0.1131432227931986
  0.8453145989434502  0.6832901721552878  0.1131539522900583
  0.3334608290240768  0.1667360898534344  0.3380581076139222
  0.5001518721184264  0.0001491585772766  0.3380291748099228
  0.3334398578943772  0.6667256100356196  0.3377355857180018
  0.5001518212269082  0.5000134749883653  0.3380291694681183
  0.8334341059817167  0.1667374088915112  0.3380532477173617
  0.0001117083214914  0.0000611659986165  0.3380369200508206
  0.8334341925423392  0.6667082109011171  0.3380532902922000
  0.0000226210483614  0.5000166654192141  0.3380296982745412
 
  0.00000000E+00  0.00000000E+00  0.00000000E+00
  0.00000000E+00  0.00000000E+00  0.00000000E+00
  0.00000000E+00  0.00000000E+00  0.00000000E+00
  0.00000000E+00  0.00000000E+00  0.00000000E+00
  0.00000000E+00  0.00000000E+00  0.00000000E+00
  0.00000000E+00  0.00000000E+00  0.00000000E+00
  0.00000000E+00  0.00000000E+00  0.00000000E+00
  0.00000000E+00  0.00000000E+00  0.00000000E+00
  0.00000000E+00  0.00000000E+00  0.00000000E+00
  0.00000000E+00  0.00000000E+00  0.00000000E+00
  0.00000000E+00  0.00000000E+00  0.00000000E+00
  0.00000000E+00  0.00000000E+00  0.00000000E+00
  0.00000000E+00  0.00000000E+00  0.00000000E+00
  0.00000000E+00  0.00000000E+00  0.00000000E+00
  0.00000000E+00  0.00000000E+00  0.00000000E+00
  0.00000000E+00  0.00000000E+00  0.00000000E+00
