Graphene-BC3 Hollow with lattice paramet
   1.00000000000000     
     4.3387872729600367    2.5049999999999994    0.0000000000000000
    -4.3387872729600367    2.5049999999999994    0.0000000000000000
     0.0000000000000000    0.0000000000000000   15.0000000000000000
   B    C 
     2    14
Direct
  0.3382293878772845  0.6691142129678707  0.1005771908244990
  0.6715645965535036  0.3357819219223172  0.1002577600814060
  0.1647325972844907  0.3221196608474756  0.1002848371806352
  0.3244974266653889  0.1622475818809761  0.1003012228843782
  0.1647323909181543  0.8426108738188687  0.1002852588590877
  0.8450946310556527  0.1622460878096160  0.1002647105403257
  0.6852190741308668  0.8426086127972199  0.1002494351615726
  0.8450949984612353  0.6828460390879302  0.1002651581048487
  0.3334534125759766  0.1667270557213647  0.3252751554560287
  0.5001399814935702  0.0001306145090958  0.3252495295976212
  0.3334354048871427  0.6667180373047471  0.3249693424956875
  0.5001399793461957  0.5000104578828237  0.3252495319656042
  0.8334306496843247  0.1667282615039095  0.3252702119567896
  0.0001045649136112  0.0000528427465490  0.3252470841040254
  0.8334306332215483  0.6667030587363969  0.3252702167623603
  0.0000256042643867  0.5000133471295325  0.3252500206918021
 
  0.00000000E+00  0.00000000E+00  0.00000000E+00
  0.00000000E+00  0.00000000E+00  0.00000000E+00
  0.00000000E+00  0.00000000E+00  0.00000000E+00
  0.00000000E+00  0.00000000E+00  0.00000000E+00
  0.00000000E+00  0.00000000E+00  0.00000000E+00
  0.00000000E+00  0.00000000E+00  0.00000000E+00
  0.00000000E+00  0.00000000E+00  0.00000000E+00
  0.00000000E+00  0.00000000E+00  0.00000000E+00
  0.00000000E+00  0.00000000E+00  0.00000000E+00
  0.00000000E+00  0.00000000E+00  0.00000000E+00
  0.00000000E+00  0.00000000E+00  0.00000000E+00
  0.00000000E+00  0.00000000E+00  0.00000000E+00
  0.00000000E+00  0.00000000E+00  0.00000000E+00
  0.00000000E+00  0.00000000E+00  0.00000000E+00
  0.00000000E+00  0.00000000E+00  0.00000000E+00
  0.00000000E+00  0.00000000E+00  0.00000000E+00
