Graphene-B4C3 Hollow 2 with lattice para
   1.00000000000000     
     4.1898309035091144    2.4190000000000000    0.0000000000000000
    -4.1898309035091144    2.4190000000000000    0.0000000000000000
     0.0000000000000000    0.0000000000000000   15.0000000000000000
   B    C 
     4    11
Direct
  0.0042824257656555  0.0028415771711258  0.1002920047357073
  0.3594673202112572  0.0028593042275737  0.1013231651701490
  0.0043047378615292  0.3580332602645553  0.1013256208461812
  0.6490998860538425  0.6476525981204918  0.1013260202813050
  0.3280153087990438  0.3265879758892818  0.1011755537504198
  0.6805321388541588  0.0028175379663121  0.1011460795569290
  0.0042538846259856  0.6790897220401608  0.1011404267202969
  0.1665649056516631  0.3332737903832700  0.3379693401201393
  0.3332467883174802  0.1665897972669265  0.3379709728086863
  0.1666033263690388  0.8332995590698468  0.3379726311033905
  0.3332480053431853  0.6666100076358654  0.3378489095878868
  0.6665817566786204  0.3332749356797000  0.3378489055373499
  0.8332718752195982  0.1666298195111827  0.3379721910227811
  0.6665858072369615  0.8332611374281638  0.3379676554270047
  0.8332358330119877  0.6666129773455551  0.3379665233318010
 
  0.00000000E+00  0.00000000E+00  0.00000000E+00
  0.00000000E+00  0.00000000E+00  0.00000000E+00
  0.00000000E+00  0.00000000E+00  0.00000000E+00
  0.00000000E+00  0.00000000E+00  0.00000000E+00
  0.00000000E+00  0.00000000E+00  0.00000000E+00
  0.00000000E+00  0.00000000E+00  0.00000000E+00
  0.00000000E+00  0.00000000E+00  0.00000000E+00
  0.00000000E+00  0.00000000E+00  0.00000000E+00
  0.00000000E+00  0.00000000E+00  0.00000000E+00
  0.00000000E+00  0.00000000E+00  0.00000000E+00
  0.00000000E+00  0.00000000E+00  0.00000000E+00
  0.00000000E+00  0.00000000E+00  0.00000000E+00
  0.00000000E+00  0.00000000E+00  0.00000000E+00
  0.00000000E+00  0.00000000E+00  0.00000000E+00
  0.00000000E+00  0.00000000E+00  0.00000000E+00
