Graphene-BC3 Top with lattice parameter 
   1.00000000000000     
     4.3517776540168045    2.5125000000000002    0.0000000000000000
    -4.3517776540168045    2.5125000000000002    0.0000000000000000
     0.0000000000000000    0.0000000000000000   15.0000000000000000
   B    C 
     2    14
Direct
  0.3383344898821347  0.6691678491796413  0.1002410694901633
  0.6716673062742571  0.3358339423079131  0.1002410636868019
  0.1647439626201954  0.3219821074838947  0.0999164561529615
  0.3244848011638286  0.1622420119068458  0.0999154763783321
  0.1647451340481254  0.8427624165010497  0.0999164574191748
  0.8452648400735039  0.1622413721108960  0.0999179945692681
  0.6855247350153578  0.8427614928129861  0.0999185894401452
  0.8452665834683866  0.6830223561888168  0.0999179867903768
  0.1665690886485953  0.3331445720381854  0.3288770247532528
  0.3331423139584908  0.1665708978957966  0.3288781329868272
  0.1665690997965212  0.8334242257078444  0.3288770242687197
  0.3333272104486625  0.6666633540473134  0.3285800583175630
  0.6666605274110329  0.3333301200932456  0.3285800554606100
  0.8334220372910661  0.1665714188532912  0.3288746312238136
  0.6668478409381022  0.8334237787655259  0.3288733485816121
  0.8334220289617587  0.6668500841067635  0.3288746304803979
 
  0.00000000E+00  0.00000000E+00  0.00000000E+00
  0.00000000E+00  0.00000000E+00  0.00000000E+00
  0.00000000E+00  0.00000000E+00  0.00000000E+00
  0.00000000E+00  0.00000000E+00  0.00000000E+00
  0.00000000E+00  0.00000000E+00  0.00000000E+00
  0.00000000E+00  0.00000000E+00  0.00000000E+00
  0.00000000E+00  0.00000000E+00  0.00000000E+00
  0.00000000E+00  0.00000000E+00  0.00000000E+00
  0.00000000E+00  0.00000000E+00  0.00000000E+00
  0.00000000E+00  0.00000000E+00  0.00000000E+00
  0.00000000E+00  0.00000000E+00  0.00000000E+00
  0.00000000E+00  0.00000000E+00  0.00000000E+00
  0.00000000E+00  0.00000000E+00  0.00000000E+00
  0.00000000E+00  0.00000000E+00  0.00000000E+00
  0.00000000E+00  0.00000000E+00  0.00000000E+00
  0.00000000E+00  0.00000000E+00  0.00000000E+00
