Graphene-BC3 Top with lattice parameter 5.025 and distance 3.432
        1.0
        4.3517776540168045    2.5125000000000002    0.0000000000000000
       -4.3517776540168045    2.5125000000000002    0.0000000000000000
        0.0000000000000000    0.0000000000000000   15.0000000000000000
        B   C
        2   14
        Direct
        0.3383303433200950  0.6691643220287062  0.1000000000000000
        0.6716552153790474  0.3358414604455504  0.1000000000000000
        0.1637394633814182  0.3199996222090675  0.1000000000000000
        0.3225021842022073  0.1612639661328572  0.1000000000000000
        0.1637643005245266  0.8437638408621737  0.1000000000000000
        0.8462386341522503  0.1612368417574501  0.1000000000000000
        0.6874985035840169  0.8437300034210438  0.1000000000000000
        0.8462673554564475  0.6849959431431500  0.1000000000000000
        0.1666659999999993  0.3333330000000032  0.3288000000000000
        0.3333330000000032  0.1666659999999993  0.3288000000000000
        0.1666659999999993  0.8333330000000032  0.3288000000000000
        0.3333330000000032  0.6666659999999993  0.3288000000000000
        0.6666659999999993  0.3333330000000032  0.3288000000000000
        0.8333330000000032  0.1666659999999993  0.3288000000000000
        0.6666659999999993  0.8333330000000032  0.3288000000000000
        0.8333330000000032  0.6666659999999993  0.3288000000000000