Graphene-Borophene Hollow 2 with lattice
   1.00000000000000     
     4.3093424092313661    2.4880000000000000    0.0000000000000000
    -4.3093424092313661    2.4880000000000000    0.0000000000000000
     0.0000000000000000    0.0000000000000000   15.0000000000000000
   B    C 
     8     8
Direct
  0.6695056653202994 -0.0000627483908145  0.1670532465718817
  0.3304305862888888 -0.0000627483908145  0.1670532465718817
  0.0000627483908145  0.3304933346797033  0.1670532465718817
  0.0000627483908145  0.6695684137111133  0.1670532465718818
  0.3304305862888888  0.3304933346797033  0.1670532465718818
  0.6695056653202995  0.6695684137111133  0.1670532465718818
  0.6666659999999993  0.3333330000000032  0.1605665849713996
  0.3333330000000032  0.6666659999999993  0.1741390647700771
  0.3333624085740403  0.1666812042870273  0.4034614634099404
  0.5000264945501253  0.0000529891002507  0.4035264820768585
  0.3333326666666636  0.6666663333333389  0.4034734414089871
  0.5000264945501253  0.4999725054498772  0.4035264820768585
  0.8333177957129754  0.1666812042870273  0.4034614634099404
  0.9999996666666675  0.9999993333333350  0.4033375929578399
  0.8333177957129754  0.6666365914259627  0.4034614634099404
 -0.0000539891002480  0.4999725054498772  0.4035264820768585
 
  0.00000000E+00  0.00000000E+00  0.00000000E+00
  0.00000000E+00  0.00000000E+00  0.00000000E+00
  0.00000000E+00  0.00000000E+00  0.00000000E+00
  0.00000000E+00  0.00000000E+00  0.00000000E+00
  0.00000000E+00  0.00000000E+00  0.00000000E+00
  0.00000000E+00  0.00000000E+00  0.00000000E+00
  0.00000000E+00  0.00000000E+00  0.00000000E+00
  0.00000000E+00  0.00000000E+00  0.00000000E+00
  0.00000000E+00  0.00000000E+00  0.00000000E+00
  0.00000000E+00  0.00000000E+00  0.00000000E+00
  0.00000000E+00  0.00000000E+00  0.00000000E+00
  0.00000000E+00  0.00000000E+00  0.00000000E+00
  0.00000000E+00  0.00000000E+00  0.00000000E+00
  0.00000000E+00  0.00000000E+00  0.00000000E+00
  0.00000000E+00  0.00000000E+00  0.00000000E+00
  0.00000000E+00  0.00000000E+00  0.00000000E+00
