Graphene-B4C3 Hollow 2 with lattice para
   1.00000000000000     
     4.1967591067393890    2.4229999999999996    0.0000000000000000
    -4.1967591067393890    2.4229999999999996    0.0000000000000000
     0.0000000000000000    0.0000000000000000   15.0000000000000000
   B    C 
     4    11
Direct
  0.0044068410017980  0.0029254565608388  0.0996333934869702
  0.3595612334784753  0.0029378567088328  0.1010347479559255
  0.0044224253632257  0.3580847603497158  0.1010368854817005
  0.6492661214914526  0.6477800971039323  0.1010411376885331
  0.3280906470826963  0.3266119747951778  0.1008084153947894
  0.6807414427323205  0.0029293833846702  0.1008089432520682
  0.0044073360294938  0.6792601479380869  0.1008096409672962
  0.1664463912347445  0.3331945409344343  0.3382850198552028
  0.3331315341590779  0.1665098479163192  0.3382868229303580
  0.1664828996738804  0.8332149786971871  0.3382892409912528
  0.3331339368172196  0.6665309037482390  0.3381772390714379
  0.6664671302967248  0.3331961715324511  0.3381772461823840
  0.8331511168033937  0.1665456575870675  0.3382885715417638
  0.6664680744717958  0.8331806320947636  0.3382849004964295
  0.8331168693637084  0.6665315906482949  0.3382837947039149
 
  0.00000000E+00  0.00000000E+00  0.00000000E+00
  0.00000000E+00  0.00000000E+00  0.00000000E+00
  0.00000000E+00  0.00000000E+00  0.00000000E+00
  0.00000000E+00  0.00000000E+00  0.00000000E+00
  0.00000000E+00  0.00000000E+00  0.00000000E+00
  0.00000000E+00  0.00000000E+00  0.00000000E+00
  0.00000000E+00  0.00000000E+00  0.00000000E+00
  0.00000000E+00  0.00000000E+00  0.00000000E+00
  0.00000000E+00  0.00000000E+00  0.00000000E+00
  0.00000000E+00  0.00000000E+00  0.00000000E+00
  0.00000000E+00  0.00000000E+00  0.00000000E+00
  0.00000000E+00  0.00000000E+00  0.00000000E+00
  0.00000000E+00  0.00000000E+00  0.00000000E+00
  0.00000000E+00  0.00000000E+00  0.00000000E+00
  0.00000000E+00  0.00000000E+00  0.00000000E+00
