Graphene-B4C3 Hollow 2 with lattice para
   1.00000000000000     
     4.2019552591620952    2.4259999999999993    0.0000000000000000
    -4.2019552591620952    2.4259999999999993    0.0000000000000000
     0.0000000000000000    0.0000000000000000   15.0000000000000000
   B    C 
     4    11
Direct
  0.0043721899364430  0.0029019303932541  0.0997270189815236
  0.3595249933451382  0.0029124406978918  0.1009908801193713
  0.0043832120778509  0.3580574169192647  0.1009932046249001
  0.6492296830132561  0.6477589824128496  0.1010024237378040
  0.3279986545640164  0.3265269183983675  0.1007833886598936
  0.6807678840591936  0.0029133842839546  0.1007815883591965
  0.0043834562565368  0.6792980934479046  0.1007818304681623
  0.1664743932396958  0.3332145520384142  0.3382994019084635
  0.3331607868668292  0.1665278326563456  0.3383011719352400
  0.1665151631270592  0.8332374393721206  0.3383028800164316
  0.3331626492430137  0.6665504665588988  0.3381924153512532
  0.6664958504335630  0.3332157875879967  0.3381924947479708
  0.8331830876290772  0.1665686539231971  0.3383021905270558
  0.6664972681496730  0.8331986572704178  0.3382980760049619
  0.8331447280586614  0.6665514440391337  0.3382970345577987
 
  0.00000000E+00  0.00000000E+00  0.00000000E+00
  0.00000000E+00  0.00000000E+00  0.00000000E+00
  0.00000000E+00  0.00000000E+00  0.00000000E+00
  0.00000000E+00  0.00000000E+00  0.00000000E+00
  0.00000000E+00  0.00000000E+00  0.00000000E+00
  0.00000000E+00  0.00000000E+00  0.00000000E+00
  0.00000000E+00  0.00000000E+00  0.00000000E+00
  0.00000000E+00  0.00000000E+00  0.00000000E+00
  0.00000000E+00  0.00000000E+00  0.00000000E+00
  0.00000000E+00  0.00000000E+00  0.00000000E+00
  0.00000000E+00  0.00000000E+00  0.00000000E+00
  0.00000000E+00  0.00000000E+00  0.00000000E+00
  0.00000000E+00  0.00000000E+00  0.00000000E+00
  0.00000000E+00  0.00000000E+00  0.00000000E+00
  0.00000000E+00  0.00000000E+00  0.00000000E+00
