Graphene-B4C3 Hollow 2 with lattice para
   1.00000000000000     
     4.2019552591620952    2.4259999999999993    0.0000000000000000
    -4.2019552591620952    2.4259999999999993    0.0000000000000000
     0.0000000000000000    0.0000000000000000   15.0000000000000000
   B    C 
     4    11
Direct
  0.0042607697376462  0.0028601170375232  0.1029476695544855
  0.3593120968525674  0.0028331267702783  0.1010061321883815
  0.0042673142723642  0.3578772195574458  0.1010081975331667
  0.6491106160620775  0.6476958569024167  0.1010275863605822
  0.3275439487520977  0.3261434537873158  0.1014001096829802
  0.6808653221113803  0.0028047762399879  0.1014429528185338
  0.0042210735025668  0.6794148464892185  0.1014514102457232
  0.1664644294452701  0.3332673840099945  0.3376215701398942
  0.3332567045713926  0.1664715095538403  0.3376228842214701
  0.1667557331578880  0.8334910328369556  0.3376236323903442
  0.3332956962086991  0.6666306458912793  0.3376157861561392
  0.6666131054427973  0.3333083888393717  0.3376158336180156
  0.8334810517619131  0.1667724515926285  0.3376224221295855
  0.6666603052775550  0.8331868917655945  0.3376199195105350
  0.8331858328437919  0.6666762987261610  0.3376198934501901
 
  0.00000000E+00  0.00000000E+00  0.00000000E+00
  0.00000000E+00  0.00000000E+00  0.00000000E+00
  0.00000000E+00  0.00000000E+00  0.00000000E+00
  0.00000000E+00  0.00000000E+00  0.00000000E+00
  0.00000000E+00  0.00000000E+00  0.00000000E+00
  0.00000000E+00  0.00000000E+00  0.00000000E+00
  0.00000000E+00  0.00000000E+00  0.00000000E+00
  0.00000000E+00  0.00000000E+00  0.00000000E+00
  0.00000000E+00  0.00000000E+00  0.00000000E+00
  0.00000000E+00  0.00000000E+00  0.00000000E+00
  0.00000000E+00  0.00000000E+00  0.00000000E+00
  0.00000000E+00  0.00000000E+00  0.00000000E+00
  0.00000000E+00  0.00000000E+00  0.00000000E+00
  0.00000000E+00  0.00000000E+00  0.00000000E+00
  0.00000000E+00  0.00000000E+00  0.00000000E+00
