Graphene-B4C3 Hollow 2 with lattice para
   1.00000000000000     
     4.2019552591620952    2.4259999999999993    0.0000000000000000
    -4.2019552591620952    2.4259999999999993    0.0000000000000000
     0.0000000000000000    0.0000000000000000   15.0000000000000000
   B    C 
     4    11
Direct
  0.0041698172239755  0.0027128243441593  0.1195998512486878
  0.3563713515260324  0.0028280200556153  0.0976851078906883
  0.0042160258429191  0.3549317576563162  0.0976883307036469
  0.6519898728957157  0.6506161155708564  0.0976770931165551
  0.3262447375201719  0.3248589914015639  0.1003140769605997
  0.6821300853650398  0.0027918425784554  0.1002902540736750
  0.0041849001125977  0.6807044110528430  0.1002821981203531
  0.1666267705116662  0.3333804610810342  0.3372327318010442
  0.3333806853722657  0.1666282093939789  0.3372332863996670
  0.1667485597912116  0.8333653076535497  0.3372341910803449
  0.3333340173319225  0.6666692749682809  0.3371546903204516
  0.6666688194650606  0.3333321490901950  0.3371546818414327
  0.8333638911604402  0.1667473062439613  0.3372341231793409
  0.6666174385012118  0.8332494853134165  0.3372329373906042
  0.8332470273797764  0.6666178435957855  0.3372324458729354
 
  0.00000000E+00  0.00000000E+00  0.00000000E+00
  0.00000000E+00  0.00000000E+00  0.00000000E+00
  0.00000000E+00  0.00000000E+00  0.00000000E+00
  0.00000000E+00  0.00000000E+00  0.00000000E+00
  0.00000000E+00  0.00000000E+00  0.00000000E+00
  0.00000000E+00  0.00000000E+00  0.00000000E+00
  0.00000000E+00  0.00000000E+00  0.00000000E+00
  0.00000000E+00  0.00000000E+00  0.00000000E+00
  0.00000000E+00  0.00000000E+00  0.00000000E+00
  0.00000000E+00  0.00000000E+00  0.00000000E+00
  0.00000000E+00  0.00000000E+00  0.00000000E+00
  0.00000000E+00  0.00000000E+00  0.00000000E+00
  0.00000000E+00  0.00000000E+00  0.00000000E+00
  0.00000000E+00  0.00000000E+00  0.00000000E+00
  0.00000000E+00  0.00000000E+00  0.00000000E+00
