Graphene-Borophene Hollow 1 with lattice
   1.00000000000000     
     4.3257968919032708    2.4975000000000001    0.0000000000000000
    -4.3257968919032708    2.4975000000000001    0.0000000000000000
     0.0000000000000000    0.0000000000000000   15.0000000000000000
   B    C 
     8     8
Direct
  0.6724110914237882 -0.0031880440984064  0.1666677025668581
  0.3337664409732796 -0.0030443335812577  0.1665845283751165
  0.0031880440984064  0.3275879085762142  0.1666677025668581
  0.0030443335812577  0.6662325590267227  0.1665845283751165
  0.3336015764857165  0.3274779699603839  0.1665676917089947
  0.6725210300396188  0.6663974235142853  0.1665676917089947
  0.6695719362714176  0.3304270637285847  0.1623080447629875
  0.3362927409039538  0.6637062590960483  0.1716070109278884
  0.2747514156438829  0.2252953424556021  0.4029189671278159
  0.4414146747512895  0.0586322226264151  0.4029134741009229
  0.2747275225785029  0.7252714774214992  0.4028889691734546
  0.4414147086324661  0.5585842913675367  0.4029955448581662
  0.7747144193154403  0.2252845806845626  0.4028848954664494
  0.9413915192719225  0.0586074807280800  0.4028108070516468
  0.7747036575444000  0.7252475843561196  0.4029189671278159
  0.9413667773735878  0.5585843252487126  0.4029134741009229
 
  0.00000000E+00  0.00000000E+00  0.00000000E+00
  0.00000000E+00  0.00000000E+00  0.00000000E+00
  0.00000000E+00  0.00000000E+00  0.00000000E+00
  0.00000000E+00  0.00000000E+00  0.00000000E+00
  0.00000000E+00  0.00000000E+00  0.00000000E+00
  0.00000000E+00  0.00000000E+00  0.00000000E+00
  0.00000000E+00  0.00000000E+00  0.00000000E+00
  0.00000000E+00  0.00000000E+00  0.00000000E+00
  0.00000000E+00  0.00000000E+00  0.00000000E+00
  0.00000000E+00  0.00000000E+00  0.00000000E+00
  0.00000000E+00  0.00000000E+00  0.00000000E+00
  0.00000000E+00  0.00000000E+00  0.00000000E+00
  0.00000000E+00  0.00000000E+00  0.00000000E+00
  0.00000000E+00  0.00000000E+00  0.00000000E+00
  0.00000000E+00  0.00000000E+00  0.00000000E+00
  0.00000000E+00  0.00000000E+00  0.00000000E+00
