Graphene-BC3 Hollow with lattice paramet
   1.00000000000000     
     4.3604379080546485    2.5175000000000001    0.0000000000000000
    -4.3604379080546485    2.5175000000000001    0.0000000000000000
     0.0000000000000000    0.0000000000000000   15.0000000000000000
   B    C 
     2    14
Direct
  0.3382645946025796  0.6691312917418346  0.1004512022928216
  0.6716029951459040  0.3358008684302996  0.1001408849645361
  0.1646131260980820  0.3218227597813813  0.1001547252459676
  0.3242210071455506  0.1621095791009957  0.1001652537548325
  0.1646133017893802  0.8427878540574633  0.1001551682560466
  0.8452866623145996  0.1621079406629919  0.1001521924115840
  0.6855731517166109  0.8427842734162470  0.1001423646669733
  0.8452879650885985  0.6831770561479807  0.1001525777507895
  0.3334165217694634  0.1667086805855295  0.3253966842470312
  0.5001016663968858  0.0001119716969161  0.3253760215263662
  0.3333994218267206  0.6667001070752641  0.3250789816281149
  0.5001016968215686  0.4999916718833991  0.3253760374769378
  0.8333948148899526  0.1667102412750579  0.3253917348121490
  0.0000659726217552  0.0000340360729820  0.3253643072826958
  0.8333948362433348  0.6666854990265584  0.3253917577069091
  0.9999875988623471  0.4999948357117932  0.3253767726429166
 
  0.00000000E+00  0.00000000E+00  0.00000000E+00
  0.00000000E+00  0.00000000E+00  0.00000000E+00
  0.00000000E+00  0.00000000E+00  0.00000000E+00
  0.00000000E+00  0.00000000E+00  0.00000000E+00
  0.00000000E+00  0.00000000E+00  0.00000000E+00
  0.00000000E+00  0.00000000E+00  0.00000000E+00
  0.00000000E+00  0.00000000E+00  0.00000000E+00
  0.00000000E+00  0.00000000E+00  0.00000000E+00
  0.00000000E+00  0.00000000E+00  0.00000000E+00
  0.00000000E+00  0.00000000E+00  0.00000000E+00
  0.00000000E+00  0.00000000E+00  0.00000000E+00
  0.00000000E+00  0.00000000E+00  0.00000000E+00
  0.00000000E+00  0.00000000E+00  0.00000000E+00
  0.00000000E+00  0.00000000E+00  0.00000000E+00
  0.00000000E+00  0.00000000E+00  0.00000000E+00
  0.00000000E+00  0.00000000E+00  0.00000000E+00
