Graphene-BC3 Hollow with lattice paramet
   1.00000000000000     
     4.3604379080546485    2.5175000000000001    0.0000000000000000
    -4.3604379080546485    2.5175000000000001    0.0000000000000000
     0.0000000000000000    0.0000000000000000   15.0000000000000000
   B    C 
     2    14
Direct
  0.3382683315524282  0.6691327762360101  0.1004532612656947
  0.6716025567148373  0.3358001323295341  0.1001417246130764
  0.1646122949502394  0.3218251430644683  0.1001547109253103
  0.3242177325301420  0.1621078939373451  0.1001649298914854
  0.1646137157837413  0.8427856737184187  0.1001551392345473
  0.8452895795895310  0.1621055477597535  0.1001518934010909
  0.6855662188459447  0.8427821406475319  0.1001423548331210
  0.8452899400433118  0.6831810710189309  0.1001522803333840
  0.3334155422165836  0.1667088252385755  0.3253961503515420
  0.5001079875788431  0.0001187293500650  0.3253735946136930
  0.3333961526817374  0.6666991402455641  0.3250834423927649
  0.5001080147734046  0.4999899756190352  0.3253736071936681
  0.8333906971359207  0.1667103567456512  0.3253912886836340
  0.0000700694466435  0.0000354239669591  0.3253666976070201
  0.8333907249106182  0.6666825567484316  0.3253913085214110
  0.9999857745794070  0.4999932800404200  0.3253742828052284
 
  0.00000000E+00  0.00000000E+00  0.00000000E+00
  0.00000000E+00  0.00000000E+00  0.00000000E+00
  0.00000000E+00  0.00000000E+00  0.00000000E+00
  0.00000000E+00  0.00000000E+00  0.00000000E+00
  0.00000000E+00  0.00000000E+00  0.00000000E+00
  0.00000000E+00  0.00000000E+00  0.00000000E+00
  0.00000000E+00  0.00000000E+00  0.00000000E+00
  0.00000000E+00  0.00000000E+00  0.00000000E+00
  0.00000000E+00  0.00000000E+00  0.00000000E+00
  0.00000000E+00  0.00000000E+00  0.00000000E+00
  0.00000000E+00  0.00000000E+00  0.00000000E+00
  0.00000000E+00  0.00000000E+00  0.00000000E+00
  0.00000000E+00  0.00000000E+00  0.00000000E+00
  0.00000000E+00  0.00000000E+00  0.00000000E+00
  0.00000000E+00  0.00000000E+00  0.00000000E+00
  0.00000000E+00  0.00000000E+00  0.00000000E+00
