Graphene-B4C3 Top with lattice parameter
   1.00000000000000     
     4.1956630105027743    2.4216980356012723    0.0028758358195061
    -4.1960632220288065    2.4223911393608692    0.0006247450568156
     0.0042892713721795    0.0114634746425364   13.9188465718362657
   B    C 
     4    11
Direct
  0.0040314471003566  0.0028686600639757  0.0855840473595900
  0.3592085240159381  0.0029741582961325  0.0841186882819356
  0.0036239652451326  0.3575261287955666  0.0841169888334999
  0.6488708531649046  0.6471914348079237  0.0841150912647294
  0.3274689814442604  0.3260269074939902  0.0842505044510198
  0.6803932035723578  0.0026950533898775  0.0841902849686094
  0.0036165488915343  0.6788708374523024  0.0841883100412963
  0.0001931374947205  0.5000562551762100  0.3353158011850723
  0.1669493293148224  0.3336856116284917  0.3354850791214654
  0.0002618329749577  0.0001671734665172  0.3354798654182573
  0.1670954721809834  0.8334656487548361  0.3354823352906462
  0.5003697509828952  0.5001953956216952  0.3353143407936776
  0.6669227931529522  0.3335001160597268  0.3352148812303386
  0.5002291175108290  0.0002295231160446  0.3353095238065270
  0.6667257096200483  0.8333144292100345  0.3354802579533422
 
  0.00000000E+00  0.00000000E+00  0.00000000E+00
  0.00000000E+00  0.00000000E+00  0.00000000E+00
  0.00000000E+00  0.00000000E+00  0.00000000E+00
  0.00000000E+00  0.00000000E+00  0.00000000E+00
  0.00000000E+00  0.00000000E+00  0.00000000E+00
  0.00000000E+00  0.00000000E+00  0.00000000E+00
  0.00000000E+00  0.00000000E+00  0.00000000E+00
  0.00000000E+00  0.00000000E+00  0.00000000E+00
  0.00000000E+00  0.00000000E+00  0.00000000E+00
  0.00000000E+00  0.00000000E+00  0.00000000E+00
  0.00000000E+00  0.00000000E+00  0.00000000E+00
  0.00000000E+00  0.00000000E+00  0.00000000E+00
  0.00000000E+00  0.00000000E+00  0.00000000E+00
  0.00000000E+00  0.00000000E+00  0.00000000E+00
  0.00000000E+00  0.00000000E+00  0.00000000E+00
