Graphene-B4C3 Top with lattice parameter
   1.00000000000000     
     4.1944509681935171    2.4234733134520789    0.0020196481255726
    -4.1941316748669077    2.4229209252048669    0.0005369714597368
     0.0029721043092981    0.0086940531056322   13.5819916345338427
   B    C 
     4    11
Direct
  0.0037409618844711  0.0021460843761540  0.0860814017450162
  0.3591892250615348  0.0027247626448403  0.0810787219941180
  0.0036884800774945  0.3579810114231372  0.0810893953057320
  0.6488270688325610  0.6472757778202642  0.0810794294737827
  0.3275401326544636  0.3259420956649377  0.0814876464110092
  0.6804062572901374  0.0028595098044095  0.0815816566370995
  0.0034085970448984  0.6789726299299708  0.0815877593479299
  0.0003845279884183  0.5002217344301840  0.3374479157565531
  0.1669611793434204  0.3335016309774938  0.3375451028102222
  0.0003278427825906  0.0002229486223641  0.3372218578356145
  0.1670234638933490  0.8335357685512796  0.3375584479152628
  0.5003072362015973  0.5002727912905759  0.3374513739257615
  0.6669650756808786  0.3334967436608243  0.3374321028336123
  0.5002267982217937  0.0001456037324372  0.3374518568268928
  0.6669638197090828  0.8334682404044518  0.3375513311813985
 
  0.00000000E+00  0.00000000E+00  0.00000000E+00
  0.00000000E+00  0.00000000E+00  0.00000000E+00
  0.00000000E+00  0.00000000E+00  0.00000000E+00
  0.00000000E+00  0.00000000E+00  0.00000000E+00
  0.00000000E+00  0.00000000E+00  0.00000000E+00
  0.00000000E+00  0.00000000E+00  0.00000000E+00
  0.00000000E+00  0.00000000E+00  0.00000000E+00
  0.00000000E+00  0.00000000E+00  0.00000000E+00
  0.00000000E+00  0.00000000E+00  0.00000000E+00
  0.00000000E+00  0.00000000E+00  0.00000000E+00
  0.00000000E+00  0.00000000E+00  0.00000000E+00
  0.00000000E+00  0.00000000E+00  0.00000000E+00
  0.00000000E+00  0.00000000E+00  0.00000000E+00
  0.00000000E+00  0.00000000E+00  0.00000000E+00
  0.00000000E+00  0.00000000E+00  0.00000000E+00
