Graphene-B4C3 Hollow 2 with lattice para
   1.00000000000000     
     4.2262039704680605    2.4399999999999999    0.0000000000000000
    -4.2262039704680605    2.4399999999999999    0.0000000000000000
     0.0000000000000000    0.0000000000000000   15.0000000000000000
   B    C 
     4    11
Direct
  0.0044547792243999  0.0029651008535967  0.0997450095579988
  0.3595911874121228  0.0029612881997832  0.1006233733711398
  0.0044576610070767  0.3580953265588499  0.1006254522132595
  0.6493230410298138  0.6478273506305715  0.1006292508745101
  0.3278055512245543  0.3263046880468396  0.1004563858142704
  0.6811074941968720  0.0029730824538263  0.1004598042444508
  0.0044715275705058  0.6796044768937898  0.1004605772758328
  0.1664047329873585  0.3331678949970027  0.3385550201041920
  0.3330893166430215  0.1664811810216951  0.3385583898900134
  0.1664529693435640  0.8331931056617311  0.3385590734142860
  0.3330914545310354  0.6665079968990293  0.3384523945254720
  0.6664316383497561  0.3331692631589481  0.3384507191578086
  0.8331136141483229  0.1665284559359672  0.3385600662504692
  0.6664315462579008  0.8331471252718666  0.3385549691367343
  0.8330674860737036  0.6665076634165158  0.3385555141695898
 
  0.00000000E+00  0.00000000E+00  0.00000000E+00
  0.00000000E+00  0.00000000E+00  0.00000000E+00
  0.00000000E+00  0.00000000E+00  0.00000000E+00
  0.00000000E+00  0.00000000E+00  0.00000000E+00
  0.00000000E+00  0.00000000E+00  0.00000000E+00
  0.00000000E+00  0.00000000E+00  0.00000000E+00
  0.00000000E+00  0.00000000E+00  0.00000000E+00
  0.00000000E+00  0.00000000E+00  0.00000000E+00
  0.00000000E+00  0.00000000E+00  0.00000000E+00
  0.00000000E+00  0.00000000E+00  0.00000000E+00
  0.00000000E+00  0.00000000E+00  0.00000000E+00
  0.00000000E+00  0.00000000E+00  0.00000000E+00
  0.00000000E+00  0.00000000E+00  0.00000000E+00
  0.00000000E+00  0.00000000E+00  0.00000000E+00
  0.00000000E+00  0.00000000E+00  0.00000000E+00
