BC3 with lattice parameter 5.169        
   1.00000000000000     
     4.4764850000000003    2.5844999999999998    0.0000000000000000
    -4.4764850000000003    2.5844999999999998    0.0000000000000000
     0.0000000000000000    0.0000000000000000   15.0000000000000000
   B    C 
     2     6
Direct
  0.3383344748954765  0.6691650652828487  0.2500000000000000
  0.6716660432173256  0.3358319531056609  0.2500000000000000
  0.1637467031337957  0.3199991705952899  0.2500000000000000
  0.3224993744477059  0.1612493163964589  0.2500000000000000
  0.1637530082606490  0.8437485974695292  0.2500000000000000
  0.8462453504283380  0.1612512251773914  0.2500000000000000
  0.6875000775993393  0.8437509490579038  0.2500000000000000
  0.8462509680173722  0.6849997229149160  0.2500000000000000
 
  0.00000000E+00  0.00000000E+00  0.00000000E+00
  0.00000000E+00  0.00000000E+00  0.00000000E+00
  0.00000000E+00  0.00000000E+00  0.00000000E+00
  0.00000000E+00  0.00000000E+00  0.00000000E+00
  0.00000000E+00  0.00000000E+00  0.00000000E+00
  0.00000000E+00  0.00000000E+00  0.00000000E+00
  0.00000000E+00  0.00000000E+00  0.00000000E+00
  0.00000000E+00  0.00000000E+00  0.00000000E+00
