Graphene-B4C3 Bridge with lattice parame
   1.00000000000000     
     4.1898309035091144    2.4190000000000000    0.0000000000000000
    -4.1898309035091144    2.4190000000000000    0.0000000000000000
     0.0000000000000000    0.0000000000000000   15.0000000000000000
   B    C 
     4    11
Direct
  0.0052765840147128  0.0017187685136037  0.1025784652046619
  0.3603970075585682  0.0017304884003833  0.1011810871674315
  0.0052833172748696  0.3567524007730060  0.1013631779840540
  0.6503844066695197  0.6465415242520853  0.1013124571491862
  0.3291788193461562  0.3253346897192581  0.1013158213517034
  0.6817051461831609  0.0017481008003100  0.1015307192761175
  0.0053255916098518  0.6779287331004015  0.1013796589722871
  0.0822952724653536  0.4176104059321545  0.3368075096512864
  0.2489866888738293  0.2510112790599656  0.3369302680836519
  0.0823507914082319  0.9176588657161008  0.3368599869990144
  0.2490494845209345  0.7509706455256437  0.3367873192738888
  0.5823021022358092  0.4175839391093959  0.3368067874765623
  0.7489523775506411  0.2509600116207299  0.3367764516903599
  0.5822636259600383  0.9176202670063121  0.3369301964432597
  0.7488761176616439  0.7509305471373456  0.3368194266098714
 
  0.00000000E+00  0.00000000E+00  0.00000000E+00
  0.00000000E+00  0.00000000E+00  0.00000000E+00
  0.00000000E+00  0.00000000E+00  0.00000000E+00
  0.00000000E+00  0.00000000E+00  0.00000000E+00
  0.00000000E+00  0.00000000E+00  0.00000000E+00
  0.00000000E+00  0.00000000E+00  0.00000000E+00
  0.00000000E+00  0.00000000E+00  0.00000000E+00
  0.00000000E+00  0.00000000E+00  0.00000000E+00
  0.00000000E+00  0.00000000E+00  0.00000000E+00
  0.00000000E+00  0.00000000E+00  0.00000000E+00
  0.00000000E+00  0.00000000E+00  0.00000000E+00
  0.00000000E+00  0.00000000E+00  0.00000000E+00
  0.00000000E+00  0.00000000E+00  0.00000000E+00
  0.00000000E+00  0.00000000E+00  0.00000000E+00
  0.00000000E+00  0.00000000E+00  0.00000000E+00
