Graphene-B4C3 Bridge with lattice parame
   1.00000000000000     
     4.1898309035091144    2.4190000000000000    0.0000000000000000
    -4.1898309035091144    2.4190000000000000    0.0000000000000000
     0.0000000000000000    0.0000000000000000   15.0000000000000000
   B    C 
     4    11
Direct
  0.0052949257169658  0.0017011469674076  0.1025279696314512
  0.3604094501682009  0.0017074898489494  0.1012008991241105
  0.0052986939108063  0.3567209094962591  0.1013633726827046
  0.6504108626231144  0.6465302392967089  0.1013187672960853
  0.3292004864358052  0.3253072199096087  0.1013155685404234
  0.6817324076131085  0.0017431694194591  0.1015241571755083
  0.0053416463992937  0.6779151849282489  0.1013780408396883
  0.0822801002526256  0.4176324960432725  0.3368109337062812
  0.2489713422553459  0.2510212841392240  0.3369343704979374
  0.0823312251512857  0.9176781965827361  0.3368606662759328
  0.2490304254676533  0.7509836267760372  0.3367935888953746
  0.5822807655431285  0.4176062231750792  0.3368090397869490
  0.7489354608143947  0.2509703704194814  0.3367839728074858
  0.5822463127816752  0.9176392299575694  0.3369339135921888
  0.7488632281999177  0.7509438797066544  0.3368240724812149
 
  0.00000000E+00  0.00000000E+00  0.00000000E+00
  0.00000000E+00  0.00000000E+00  0.00000000E+00
  0.00000000E+00  0.00000000E+00  0.00000000E+00
  0.00000000E+00  0.00000000E+00  0.00000000E+00
  0.00000000E+00  0.00000000E+00  0.00000000E+00
  0.00000000E+00  0.00000000E+00  0.00000000E+00
  0.00000000E+00  0.00000000E+00  0.00000000E+00
  0.00000000E+00  0.00000000E+00  0.00000000E+00
  0.00000000E+00  0.00000000E+00  0.00000000E+00
  0.00000000E+00  0.00000000E+00  0.00000000E+00
  0.00000000E+00  0.00000000E+00  0.00000000E+00
  0.00000000E+00  0.00000000E+00  0.00000000E+00
  0.00000000E+00  0.00000000E+00  0.00000000E+00
  0.00000000E+00  0.00000000E+00  0.00000000E+00
  0.00000000E+00  0.00000000E+00  0.00000000E+00
