Graphene-Borophene Hollow 1 with lattice
   1.00000000000000     
     4.3076103584237977    2.4870000000000001    0.0000000000000000
    -4.3076103584237977    2.4870000000000001    0.0000000000000000
     0.0000000000000000    0.0000000000000000   15.0000000000000000
   B    C 
     8     8
Direct
  0.6698409569703101 -0.0000083379798087  0.1093492109353471
  0.3302014749020046  0.0000141321095952  0.1093678338402747
  0.0000083379798087  0.3301580430296924  0.1093492109353471
 -0.0000141321095952  0.6697975250979978  0.1093678338402747
  0.3302177569995609  0.3302132362076292  0.1093773135367559
  0.6697857637923735  0.6697812430004415  0.1093773135367559
  0.6666596720947114  0.3333393279052911  0.1078556137797782
  0.3333268514991121  0.6666721485008904  0.1125634627582063
  0.2790049823207182  0.2236362003212349  0.4601094972580186
  0.4452252511175565  0.0547576056533318  0.4599382421629369
  0.2776038087098057  0.7223951912901967  0.4598110270521666
  0.4443457118080165  0.5556532881919862  0.4599978753530759
  0.7766366121690471  0.2233623878309555  0.4600603357905651
  0.9444346466100637  0.0555643533899388  0.4602274897995511
  0.7763627996787678  0.7209940176792843  0.4601094972580186
  0.9452413943466708  0.5547737488824461  0.4599382421629369
 
  0.00000000E+00  0.00000000E+00  0.00000000E+00
  0.00000000E+00  0.00000000E+00  0.00000000E+00
  0.00000000E+00  0.00000000E+00  0.00000000E+00
  0.00000000E+00  0.00000000E+00  0.00000000E+00
  0.00000000E+00  0.00000000E+00  0.00000000E+00
  0.00000000E+00  0.00000000E+00  0.00000000E+00
  0.00000000E+00  0.00000000E+00  0.00000000E+00
  0.00000000E+00  0.00000000E+00  0.00000000E+00
  0.00000000E+00  0.00000000E+00  0.00000000E+00
  0.00000000E+00  0.00000000E+00  0.00000000E+00
  0.00000000E+00  0.00000000E+00  0.00000000E+00
  0.00000000E+00  0.00000000E+00  0.00000000E+00
  0.00000000E+00  0.00000000E+00  0.00000000E+00
  0.00000000E+00  0.00000000E+00  0.00000000E+00
  0.00000000E+00  0.00000000E+00  0.00000000E+00
  0.00000000E+00  0.00000000E+00  0.00000000E+00
