Graphene-Borophene Hollow 1 with lattice
   1.00000000000000     
     4.3076103584237977    2.4870000000000001    0.0000000000000000
    -4.3076103584237977    2.4870000000000001    0.0000000000000000
     0.0000000000000000    0.0000000000000000   15.0000000000000000
   B    C 
     8     8
Direct
  0.6697262623534170 -0.0002266476851348  0.1684556259240640
  0.3303427332220555 -0.0001034143093768  0.1685890220368251
  0.0002266476851348  0.3302727376465854  0.1684556259240640
  0.0001034143093768  0.6696562667779469  0.1685890220368251
  0.3304236667489079  0.3305403568401048  0.1686553009201026
  0.6694586431598978  0.6695753332510944  0.1686553009201026
  0.6666518720831968  0.3333471279168058  0.1623210979660932
  0.3332830079390826  0.6667159920609199  0.1869192980275780
  0.2809473553305529  0.2248977787651552  0.4000836907879401
  0.4456477424922570  0.0542511284663480  0.3989561039015155
  0.2778585585993591  0.7221404414006433  0.3981218569431628
  0.4437270512648900  0.5562719487351127  0.3993440251231554
  0.7756950820870939  0.2243039179129086  0.3997620334029213
  0.9439407588452080  0.0560582411547946  0.4008522013962047
  0.7751012212348474  0.7190516446694497  0.4000836907879401
  0.9457478715336546  0.5543512575077457  0.3989561039015155
 
  0.00000000E+00  0.00000000E+00  0.00000000E+00
  0.00000000E+00  0.00000000E+00  0.00000000E+00
  0.00000000E+00  0.00000000E+00  0.00000000E+00
  0.00000000E+00  0.00000000E+00  0.00000000E+00
  0.00000000E+00  0.00000000E+00  0.00000000E+00
  0.00000000E+00  0.00000000E+00  0.00000000E+00
  0.00000000E+00  0.00000000E+00  0.00000000E+00
  0.00000000E+00  0.00000000E+00  0.00000000E+00
  0.00000000E+00  0.00000000E+00  0.00000000E+00
  0.00000000E+00  0.00000000E+00  0.00000000E+00
  0.00000000E+00  0.00000000E+00  0.00000000E+00
  0.00000000E+00  0.00000000E+00  0.00000000E+00
  0.00000000E+00  0.00000000E+00  0.00000000E+00
  0.00000000E+00  0.00000000E+00  0.00000000E+00
  0.00000000E+00  0.00000000E+00  0.00000000E+00
  0.00000000E+00  0.00000000E+00  0.00000000E+00
