Graphene-Borophene Hollow 1 with lattice
   1.00000000000000     
     4.3076103584237977    2.4870000000000001    0.0000000000000000
    -4.3076103584237977    2.4870000000000001    0.0000000000000000
     0.0000000000000000    0.0000000000000000   15.0000000000000000
   B    C 
     8     8
Direct
  0.6740719702821264 -0.0054655991436838  0.1680523008916714
  0.3365726824426949 -0.0052642022882093  0.1680472393810798
  0.0054655991436838  0.3259270297178755  0.1680523008916714
  0.0052642022882093  0.6634263175573073  0.1680472393810798
  0.3363303061744128  0.3257203897040064  0.1669883523598354
  0.6742786102959956  0.6636686938255902  0.1669883523598354
  0.6717560300761979  0.3282429699238044  0.1562116477426250
  0.3384991417302187  0.6614998582697839  0.1798914955657045
  0.2725201317284847  0.2275125813245105  0.4017795692465857
  0.4392074337600813  0.0608918491651478  0.4018555727662719
  0.2725072284599828  0.7274917715400200  0.4018831241083079
  0.4391885137905257  0.5608104862094773  0.4019032030579057
  0.7724595755403240  0.2275394244596790  0.4017981925078148
  0.9391668936656470  0.0608321063343556  0.4016662677267639
  0.7724864186754923  0.7274788682715176  0.4017795692465857
  0.9391071508348551  0.5607915662399218  0.4018555727662719
 
  0.00000000E+00  0.00000000E+00  0.00000000E+00
  0.00000000E+00  0.00000000E+00  0.00000000E+00
  0.00000000E+00  0.00000000E+00  0.00000000E+00
  0.00000000E+00  0.00000000E+00  0.00000000E+00
  0.00000000E+00  0.00000000E+00  0.00000000E+00
  0.00000000E+00  0.00000000E+00  0.00000000E+00
  0.00000000E+00  0.00000000E+00  0.00000000E+00
  0.00000000E+00  0.00000000E+00  0.00000000E+00
  0.00000000E+00  0.00000000E+00  0.00000000E+00
  0.00000000E+00  0.00000000E+00  0.00000000E+00
  0.00000000E+00  0.00000000E+00  0.00000000E+00
  0.00000000E+00  0.00000000E+00  0.00000000E+00
  0.00000000E+00  0.00000000E+00  0.00000000E+00
  0.00000000E+00  0.00000000E+00  0.00000000E+00
  0.00000000E+00  0.00000000E+00  0.00000000E+00
  0.00000000E+00  0.00000000E+00  0.00000000E+00
