Graphene-B4C3 Hollow 1 with lattice para
   1.00000000000000     
     4.2028212845658803    2.4264999999999999    0.0000000000000000
    -4.2028212845658803    2.4264999999999999    0.0000000000000000
     0.0000000000000000    0.0000000000000000   15.0000000000000000
   B    C 
     4    11
Direct
  0.0058217101083698  0.0013509065063885  0.1000671996584652
  0.3608928313356338  0.0012739644476130  0.1015412492200515
  0.0059009389341331  0.3565037064079798  0.1015914606077546
  0.6508271980063171  0.6461056503224948  0.1015786515278184
  0.3294980898707700  0.3247998432917184  0.1012115653971124
  0.6823681394191630  0.0012504720322699  0.1014744008425515
  0.0058554933624073  0.6776608937522071  0.1012485110405958
  0.1096164677120203  0.3902016039668088  0.3378458797972455
  0.2762948439436919  0.2235151683207258  0.3379485442627637
  0.1096600313599406  0.8902446104601953  0.3378852525615620
  0.2763308705609254  0.7235391903346113  0.3378514464772352
  0.6096216202736415  0.3901876146615302  0.3378307366846841
  0.7762856879811570  0.2235138303559600  0.3378872983972440
  0.6096193255707031  0.8902120073554609  0.3379388789330134
  0.7762563071166763  0.7235189822285046  0.3378782579252238
 
  0.00000000E+00  0.00000000E+00  0.00000000E+00
  0.00000000E+00  0.00000000E+00  0.00000000E+00
  0.00000000E+00  0.00000000E+00  0.00000000E+00
  0.00000000E+00  0.00000000E+00  0.00000000E+00
  0.00000000E+00  0.00000000E+00  0.00000000E+00
  0.00000000E+00  0.00000000E+00  0.00000000E+00
  0.00000000E+00  0.00000000E+00  0.00000000E+00
  0.00000000E+00  0.00000000E+00  0.00000000E+00
  0.00000000E+00  0.00000000E+00  0.00000000E+00
  0.00000000E+00  0.00000000E+00  0.00000000E+00
  0.00000000E+00  0.00000000E+00  0.00000000E+00
  0.00000000E+00  0.00000000E+00  0.00000000E+00
  0.00000000E+00  0.00000000E+00  0.00000000E+00
  0.00000000E+00  0.00000000E+00  0.00000000E+00
  0.00000000E+00  0.00000000E+00  0.00000000E+00
