Graphene-BC3 Hollow with lattice paramet
   1.00000000000000     
     4.3690981620924925    2.5225000000000000    0.0000000000000000
    -4.3690981620924925    2.5225000000000000    0.0000000000000000
     0.0000000000000000    0.0000000000000000   15.0000000000000000
   B    C 
     2    14
Direct
  0.3382712404954375  0.6691345280526702  0.1004498672047554
  0.6716056493439798  0.3358015983208320  0.1001331737937945
  0.1645524143588248  0.3216997925006265  0.1001383049952184
  0.3240929516883032  0.1620453814999595  0.1001463100020746
  0.1645531630376509  0.8428512258000384  0.1001384567176606
  0.8453573171533737  0.1620433513869896  0.1001360956038292
  0.6856977185256192  0.8428479933331227  0.1001282354464753
  0.8453572182039791  0.6833113122496353  0.1001362104746661
  0.3334129417267052  0.1667071527346461  0.3254066658763896
  0.5001032121881880  0.0001165722220465  0.3253867642279243
  0.3333938898068007  0.6666976210146676  0.3251022769609261
  0.5001032199595331  0.4999876190975399  0.3253867613098127
  0.8333892012149794  0.1667085479508534  0.3254019910238462
  0.0000653957729154  0.0000331736004431  0.3253861523804036
  0.8333892124679495  0.6666820225751138  0.3254019974400892
  0.9999805873890937  0.4999907743275108  0.3253874032088053
 
  0.00000000E+00  0.00000000E+00  0.00000000E+00
  0.00000000E+00  0.00000000E+00  0.00000000E+00
  0.00000000E+00  0.00000000E+00  0.00000000E+00
  0.00000000E+00  0.00000000E+00  0.00000000E+00
  0.00000000E+00  0.00000000E+00  0.00000000E+00
  0.00000000E+00  0.00000000E+00  0.00000000E+00
  0.00000000E+00  0.00000000E+00  0.00000000E+00
  0.00000000E+00  0.00000000E+00  0.00000000E+00
  0.00000000E+00  0.00000000E+00  0.00000000E+00
  0.00000000E+00  0.00000000E+00  0.00000000E+00
  0.00000000E+00  0.00000000E+00  0.00000000E+00
  0.00000000E+00  0.00000000E+00  0.00000000E+00
  0.00000000E+00  0.00000000E+00  0.00000000E+00
  0.00000000E+00  0.00000000E+00  0.00000000E+00
  0.00000000E+00  0.00000000E+00  0.00000000E+00
  0.00000000E+00  0.00000000E+00  0.00000000E+00
