Graphene-B4C3 Top with lattice parameter
   1.00000000000000     
     4.2045533353734497    2.4275000000000002    0.0000000000000000
    -4.2045533353734497    2.4275000000000002    0.0000000000000000
     0.0000000000000000    0.0000000000000000   15.0000000000000000
   B    C 
     4    11
Direct
  0.0040387453462747  0.0026866357935614  0.1010944371945486
  0.3592190516852402  0.0029738915337279  0.1004322579329061
  0.0037425491749523  0.3575742048999373  0.1004331857799391
  0.6491458056078052  0.6475037347050617  0.1004288342331619
  0.3276853980163312  0.3260435037667627  0.1004379626339882
  0.6806748522342391  0.0029721310125093  0.1004350929888320
  0.0037449930838095  0.6790320224615772  0.1004317236875800
  0.0001484449983726  0.5000716693832216  0.3349811524857704
  0.1667982755438130  0.3334608182945233  0.3350150683160858
  0.0001304539151174  0.0000802396932685  0.3349427564982142
  0.1668419093584401  0.8334133486118284  0.3350187893208888
  0.5001413575527746  0.5001103023641831  0.3349838683233709
  0.6667970768237055  0.3334152156737979  0.3348827646693086
  0.5001012951047529  0.0000620829455727  0.3349795778347385
  0.6667504582210645  0.8333675321937921  0.3350151947673493
 
  0.00000000E+00  0.00000000E+00  0.00000000E+00
  0.00000000E+00  0.00000000E+00  0.00000000E+00
  0.00000000E+00  0.00000000E+00  0.00000000E+00
  0.00000000E+00  0.00000000E+00  0.00000000E+00
  0.00000000E+00  0.00000000E+00  0.00000000E+00
  0.00000000E+00  0.00000000E+00  0.00000000E+00
  0.00000000E+00  0.00000000E+00  0.00000000E+00
  0.00000000E+00  0.00000000E+00  0.00000000E+00
  0.00000000E+00  0.00000000E+00  0.00000000E+00
  0.00000000E+00  0.00000000E+00  0.00000000E+00
  0.00000000E+00  0.00000000E+00  0.00000000E+00
  0.00000000E+00  0.00000000E+00  0.00000000E+00
  0.00000000E+00  0.00000000E+00  0.00000000E+00
  0.00000000E+00  0.00000000E+00  0.00000000E+00
  0.00000000E+00  0.00000000E+00  0.00000000E+00
