Graphene-B4C3 Top with lattice parameter
   1.00000000000000     
     4.2036873099696637    2.4269999999999992    0.0000000000000000
    -4.2036873099696637    2.4269999999999992    0.0000000000000000
     0.0000000000000000    0.0000000000000000   15.0000000000000000
   B    C 
     4    11
Direct
  0.0041797252379974  0.0027642126449021  0.1188431167812099
  0.3568524068796398  0.0030590360208113  0.0979719820527670
  0.0039065116913154  0.3551550099288734  0.0979733265535316
  0.6517861407366339  0.6501168402921551  0.0979649158568602
  0.3265396582699008  0.3247905278608917  0.1002631009175050
  0.6821680163853620  0.0031297047916806  0.1002452673794076
  0.0038506875174818  0.6804131664596231  0.1002386689324098
 -0.0000785775126398  0.5000116826854978  0.3337582556211608
  0.1666209281136213  0.3331500415302764  0.3338107026673969
  0.9999999481283939  0.0000027573429666  0.3336321997591948
  0.1665381579211756  0.8333848153193600  0.3338141945163026
  0.4999837243568448  0.4999076083105218  0.3337617180326002
  0.6666694078805148  0.3333322452140178  0.3336674219248499
  0.5000879279103274  0.0000788570457178  0.3337576040161814
  0.6668560031501241  0.8334708278860300  0.3338101916553047
 
  0.00000000E+00  0.00000000E+00  0.00000000E+00
  0.00000000E+00  0.00000000E+00  0.00000000E+00
  0.00000000E+00  0.00000000E+00  0.00000000E+00
  0.00000000E+00  0.00000000E+00  0.00000000E+00
  0.00000000E+00  0.00000000E+00  0.00000000E+00
  0.00000000E+00  0.00000000E+00  0.00000000E+00
  0.00000000E+00  0.00000000E+00  0.00000000E+00
  0.00000000E+00  0.00000000E+00  0.00000000E+00
  0.00000000E+00  0.00000000E+00  0.00000000E+00
  0.00000000E+00  0.00000000E+00  0.00000000E+00
  0.00000000E+00  0.00000000E+00  0.00000000E+00
  0.00000000E+00  0.00000000E+00  0.00000000E+00
  0.00000000E+00  0.00000000E+00  0.00000000E+00
  0.00000000E+00  0.00000000E+00  0.00000000E+00
  0.00000000E+00  0.00000000E+00  0.00000000E+00
