Graphene-B4C3 Top with lattice parameter
   1.00000000000000     
     4.2036873099696637    2.4269999999999992    0.0000000000000000
    -4.2036873099696637    2.4269999999999992    0.0000000000000000
     0.0000000000000000    0.0000000000000000   15.0000000000000000
   B    C 
     4    11
Direct
  0.0042062096786097  0.0028939217905679  0.1071075549078369
  0.3590632776274492  0.0031504314757840  0.1005072326214084
  0.0036231357254629  0.3572788771324255  0.1005007380511260
  0.6497965006823440  0.6477894152093917  0.1005185020667150
  0.3278605650156063  0.3262129975611986  0.1011305712545305
  0.6806861831087219  0.0028677203519117  0.1011765121973378
  0.0039138924813275  0.6791502557546801  0.1011830970126596
 -0.0000969160523885  0.4999891762687751  0.3339905654011377
  0.1667512875341172  0.3334293805531250  0.3339653286786300
  0.0000188069607814  0.0000110857355494  0.3338554567573324
  0.1666998201145010  0.8332754887544332  0.3339725188748138
  0.5000471554852178  0.4999187147950024  0.3339960494046113
  0.6666788554436004  0.3333431911035364  0.3336587837013176
  0.5001153872756393  0.0001288189495689  0.3339865225086287
  0.6665965055857026  0.8333278578973760  0.3339632332285966
 
  0.00000000E+00  0.00000000E+00  0.00000000E+00
  0.00000000E+00  0.00000000E+00  0.00000000E+00
  0.00000000E+00  0.00000000E+00  0.00000000E+00
  0.00000000E+00  0.00000000E+00  0.00000000E+00
  0.00000000E+00  0.00000000E+00  0.00000000E+00
  0.00000000E+00  0.00000000E+00  0.00000000E+00
  0.00000000E+00  0.00000000E+00  0.00000000E+00
  0.00000000E+00  0.00000000E+00  0.00000000E+00
  0.00000000E+00  0.00000000E+00  0.00000000E+00
  0.00000000E+00  0.00000000E+00  0.00000000E+00
  0.00000000E+00  0.00000000E+00  0.00000000E+00
  0.00000000E+00  0.00000000E+00  0.00000000E+00
  0.00000000E+00  0.00000000E+00  0.00000000E+00
  0.00000000E+00  0.00000000E+00  0.00000000E+00
  0.00000000E+00  0.00000000E+00  0.00000000E+00
