Graphene-B4C3 Top with lattice parameter
   1.00000000000000     
     4.1855007764901915    2.4165000000000001    0.0000000000000000
    -4.1855007764901915    2.4165000000000001    0.0000000000000000
     0.0000000000000000    0.0000000000000000   15.0000000000000000
   B    C 
     4    11
Direct
  0.0040429349623567  0.0026923644682016  0.1021158881375471
  0.3592199071174633  0.0029565137199812  0.1004437036084537
  0.0037689782297787  0.3575957309481448  0.1004444829847360
  0.6491275630774117  0.6475070711131182  0.1004408051774578
  0.3278753312973041  0.3262562022051109  0.1005709485419781
  0.6804648910124100  0.0029511885663087  0.1005689192588687
  0.0037661948601499  0.6788410092323236  0.1005657804994652
  0.0001463924371896  0.5000704789311675  0.3347989202065870
  0.1667978091896707  0.3334610055405020  0.3348356356639704
  0.0001282672673775  0.0000783599188453  0.3347587582473333
  0.1668412778078438  0.8334106655810257  0.3348394689945245
  0.5001385597081196  0.5001080926246312  0.3348017606453751
  0.6667956245764137  0.3334133537896757  0.3346946338151415
  0.5000997084373521  0.0000601883323187  0.3347972808784037
  0.6667472266858521  0.8333651083619709  0.3348356800068398
 
  0.00000000E+00  0.00000000E+00  0.00000000E+00
  0.00000000E+00  0.00000000E+00  0.00000000E+00
  0.00000000E+00  0.00000000E+00  0.00000000E+00
  0.00000000E+00  0.00000000E+00  0.00000000E+00
  0.00000000E+00  0.00000000E+00  0.00000000E+00
  0.00000000E+00  0.00000000E+00  0.00000000E+00
  0.00000000E+00  0.00000000E+00  0.00000000E+00
  0.00000000E+00  0.00000000E+00  0.00000000E+00
  0.00000000E+00  0.00000000E+00  0.00000000E+00
  0.00000000E+00  0.00000000E+00  0.00000000E+00
  0.00000000E+00  0.00000000E+00  0.00000000E+00
  0.00000000E+00  0.00000000E+00  0.00000000E+00
  0.00000000E+00  0.00000000E+00  0.00000000E+00
  0.00000000E+00  0.00000000E+00  0.00000000E+00
  0.00000000E+00  0.00000000E+00  0.00000000E+00
