Graphene-Borophene Hollow 2 with lattice
   1.00000000000000     
     4.3301270189221919    2.4999999999999991    0.0000000000000000
    -4.3301270189221919    2.4999999999999991    0.0000000000000000
     0.0000000000000000    0.0000000000000000   15.0000000000000000
   B    C 
     8     8
Direct
  0.6694243845913596 -0.0000311610005130  0.1668201727603306
  0.3305434544081305 -0.0000311610005130  0.1668201727603306
  0.0000311610005130  0.3305746154086434  0.1668201727603306
  0.0000311610005130  0.6694555455918726  0.1668201727603306
  0.3305434544081305  0.3305746154086434  0.1668201727603306
  0.6694243845913596  0.6694555455918726  0.1668201727603306
  0.6666659999999993  0.3333330000000032  0.1645226790868573
  0.3333330000000032  0.6666659999999993  0.1695637615946192
  0.3333514965179428  0.1666757482589785  0.4037147482469287
  0.5000179145253949  0.0000358290507896  0.4037750024336465
  0.3333326666666636  0.6666663333333389  0.4037105817210851
  0.5000179145253949  0.4999810854746078  0.4037750024336465
  0.8333232517410240  0.1666757482589785  0.4037147482469287
  0.9999996666666675  0.9999993333333350  0.4036126889937210
  0.8333232517410240  0.6666475034820595  0.4037147482469287
 -0.0000368290507870  0.4999810854746078  0.4037750024336465
 
  0.00000000E+00  0.00000000E+00  0.00000000E+00
  0.00000000E+00  0.00000000E+00  0.00000000E+00
  0.00000000E+00  0.00000000E+00  0.00000000E+00
  0.00000000E+00  0.00000000E+00  0.00000000E+00
  0.00000000E+00  0.00000000E+00  0.00000000E+00
  0.00000000E+00  0.00000000E+00  0.00000000E+00
  0.00000000E+00  0.00000000E+00  0.00000000E+00
  0.00000000E+00  0.00000000E+00  0.00000000E+00
  0.00000000E+00  0.00000000E+00  0.00000000E+00
  0.00000000E+00  0.00000000E+00  0.00000000E+00
  0.00000000E+00  0.00000000E+00  0.00000000E+00
  0.00000000E+00  0.00000000E+00  0.00000000E+00
  0.00000000E+00  0.00000000E+00  0.00000000E+00
  0.00000000E+00  0.00000000E+00  0.00000000E+00
  0.00000000E+00  0.00000000E+00  0.00000000E+00
  0.00000000E+00  0.00000000E+00  0.00000000E+00
