Graphene-B4C3 Top with lattice parameter
   1.00000000000000     
     4.1967591067393899    2.4230000000000000    0.0000000000000000
    -4.1967591067393899    2.4230000000000000    0.0000000000000000
     0.0000000000000000    0.0000000000000000   15.0000000000000000
   B    C 
     4    11
Direct
  0.0040459901271195  0.0026901956582855  0.1016114380466558
  0.3592315823361633  0.0029735481404357  0.1007244029501647
  0.0037567524177546  0.3575889442467297  0.1007251387609760
  0.6491421810360934  0.6475022150234042  0.1007216346196940
  0.3277699597197425  0.3261332005169025  0.1007568072717802
  0.6805972332542207  0.0029675474379773  0.1007560522580552
  0.0037588405047223  0.6789592583188548  0.1007531544326414
  0.0001429472593549  0.5000689932332726  0.3351537899954798
  0.1667919880112052  0.3334573955575866  0.3351884329392525
  0.0001242757928567  0.0000766989194188  0.3351143488725145
  0.1668351463196625  0.8334094100354238  0.3351922843537597
  0.5001343446049790  0.5001065203418349  0.3351566025794384
  0.6667904514953609  0.3334114910295261  0.3350511019886732
  0.5000953326788042  0.0000579114575634  0.3351522348488054
  0.6667436411086533  0.8333640034161096  0.3351885760821356
 
  0.00000000E+00  0.00000000E+00  0.00000000E+00
  0.00000000E+00  0.00000000E+00  0.00000000E+00
  0.00000000E+00  0.00000000E+00  0.00000000E+00
  0.00000000E+00  0.00000000E+00  0.00000000E+00
  0.00000000E+00  0.00000000E+00  0.00000000E+00
  0.00000000E+00  0.00000000E+00  0.00000000E+00
  0.00000000E+00  0.00000000E+00  0.00000000E+00
  0.00000000E+00  0.00000000E+00  0.00000000E+00
  0.00000000E+00  0.00000000E+00  0.00000000E+00
  0.00000000E+00  0.00000000E+00  0.00000000E+00
  0.00000000E+00  0.00000000E+00  0.00000000E+00
  0.00000000E+00  0.00000000E+00  0.00000000E+00
  0.00000000E+00  0.00000000E+00  0.00000000E+00
  0.00000000E+00  0.00000000E+00  0.00000000E+00
  0.00000000E+00  0.00000000E+00  0.00000000E+00
