Graphene-BC3 Top with lattice parameter 
   1.00000000000000     
     4.3777584161303364    2.5274999999999999    0.0000000000000000
    -4.3777584161303364    2.5274999999999999    0.0000000000000000
     0.0000000000000000    0.0000000000000000   15.0000000000000000
   B    C 
     2    14
Direct
  0.3384545475915967  0.6692231238289877  0.1000558674716730
  0.6717866420934213  0.3358893907244934  0.1000558158139566
  0.1646738332074919  0.3216613134488943  0.0997324285249769
  0.3242259694431673  0.1621120870024961  0.0997277728632709
  0.1646754057157901  0.8430100681611504  0.0997321463512029
  0.8455729392025413  0.1621099867888704  0.0997410225857923
  0.6860214270454621  0.8430088985860865  0.0997451148132525
  0.8455727720095870  0.6834582278703026  0.0997407505307308
  0.1664460372160810  0.3330785413989442  0.3290580427120771
  0.3330147170060374  0.1665092774097867  0.3290591062033913
  0.1664460101052218  0.8333710021514092  0.3290580369948286
  0.3332081468337812  0.6666059730490497  0.3287640329543610
  0.6665416512553946  0.3332725493267356  0.3287640277393905
  0.8333072511503308  0.1665099240185918  0.3290556982256913
  0.6667373759315428  0.8333704287734128  0.3290544375049039
  0.8333072741925716  0.6668012074607983  0.3290556987105205
 
  0.00000000E+00  0.00000000E+00  0.00000000E+00
  0.00000000E+00  0.00000000E+00  0.00000000E+00
  0.00000000E+00  0.00000000E+00  0.00000000E+00
  0.00000000E+00  0.00000000E+00  0.00000000E+00
  0.00000000E+00  0.00000000E+00  0.00000000E+00
  0.00000000E+00  0.00000000E+00  0.00000000E+00
  0.00000000E+00  0.00000000E+00  0.00000000E+00
  0.00000000E+00  0.00000000E+00  0.00000000E+00
  0.00000000E+00  0.00000000E+00  0.00000000E+00
  0.00000000E+00  0.00000000E+00  0.00000000E+00
  0.00000000E+00  0.00000000E+00  0.00000000E+00
  0.00000000E+00  0.00000000E+00  0.00000000E+00
  0.00000000E+00  0.00000000E+00  0.00000000E+00
  0.00000000E+00  0.00000000E+00  0.00000000E+00
  0.00000000E+00  0.00000000E+00  0.00000000E+00
  0.00000000E+00  0.00000000E+00  0.00000000E+00
