Graphene-BC3 Top with lattice parameter 
   1.00000000000000     
     4.3716962383038442    2.5239999999999991    0.0000000000000000
    -4.3716962383038442    2.5239999999999991    0.0000000000000000
     0.0000000000000000    0.0000000000000000   15.0000000000000000
   B    C 
     2    14
Direct
  0.3383346146971029  0.6691672932021913  0.1002331518846943
  0.6716676471902077  0.3358336521104096  0.1002331363996204
  0.1646001479623151  0.3216939884392695  0.0999084952276187
  0.3241974086913973  0.1620988600668005  0.0999075474871719
  0.1646012461722201  0.8429067016796558  0.0999084898449747
  0.8454094328041665  0.1620962488057950  0.0999099646677296
  0.6858162767278543  0.8429071674159903  0.0999105375604496
  0.8454107348887733  0.6833124773040166  0.0999099610766774
  0.1665640490542244  0.3331353814977260  0.3288851656821210
  0.3331327425451562  0.1665661682055390  0.3288862810590268
  0.1665640506801469  0.8334282599960912  0.3288851652647036
  0.3333264890575057  0.6666630437436871  0.3285875600764619
  0.6666598721360922  0.3333297315815459  0.3285875592487393
  0.8334256967252524  0.1665667539132335  0.3288827588982048
  0.6668558983681523  0.8334277451875772  0.3288814671854621
  0.8334256922994522  0.6668585268504805  0.3288827584363642
 
  0.00000000E+00  0.00000000E+00  0.00000000E+00
  0.00000000E+00  0.00000000E+00  0.00000000E+00
  0.00000000E+00  0.00000000E+00  0.00000000E+00
  0.00000000E+00  0.00000000E+00  0.00000000E+00
  0.00000000E+00  0.00000000E+00  0.00000000E+00
  0.00000000E+00  0.00000000E+00  0.00000000E+00
  0.00000000E+00  0.00000000E+00  0.00000000E+00
  0.00000000E+00  0.00000000E+00  0.00000000E+00
  0.00000000E+00  0.00000000E+00  0.00000000E+00
  0.00000000E+00  0.00000000E+00  0.00000000E+00
  0.00000000E+00  0.00000000E+00  0.00000000E+00
  0.00000000E+00  0.00000000E+00  0.00000000E+00
  0.00000000E+00  0.00000000E+00  0.00000000E+00
  0.00000000E+00  0.00000000E+00  0.00000000E+00
  0.00000000E+00  0.00000000E+00  0.00000000E+00
  0.00000000E+00  0.00000000E+00  0.00000000E+00
