Graphene-BC3 Bridge with lattice paramet
   1.00000000000000     
     4.3431173999789596    2.5074999999999998    0.0000000000000000
    -4.3431173999789596    2.5074999999999998    0.0000000000000000
     0.0000000000000000    0.0000000000000000   15.0000000000000000
   B    C 
     2    14
Direct
  0.3180004919715421  0.6906357377095267  0.1005121710110923
  0.6513442136270612  0.3573020742668770  0.1003062385625363
  0.1444838064472622  0.3436351026874589  0.0988974889731686
  0.3042126931911084  0.1837800041064932  0.1014729690673198
  0.1444223800416734  0.8642211998762832  0.1027545435156748
  0.8248692406832430  0.1837652143251855  0.0976981628264978
  0.6650006867406687  0.8641613399245709  0.0990341986339102
  0.8248639974125880  0.7044347420380030  0.1016125067403155
  0.2703514125365291  0.2284616744660775  0.3261395028956985
  0.4369788360375799  0.0618849273282858  0.3260912649021458
  0.2703219129034404  0.7285359246481284  0.3258476221218684
  0.4370539331822597  0.5618003068892699  0.3260161262583274
  0.7703459530341331  0.2285096312684577  0.3259807954255176
  0.9370415470547494  0.0618136789113987  0.3260792059516321
  0.7703962468922493  0.7285074725752660  0.3261390394357824
  0.9369713149106165  0.5618763023120412  0.3260848303451693
 
  0.00000000E+00  0.00000000E+00  0.00000000E+00
  0.00000000E+00  0.00000000E+00  0.00000000E+00
  0.00000000E+00  0.00000000E+00  0.00000000E+00
  0.00000000E+00  0.00000000E+00  0.00000000E+00
  0.00000000E+00  0.00000000E+00  0.00000000E+00
  0.00000000E+00  0.00000000E+00  0.00000000E+00
  0.00000000E+00  0.00000000E+00  0.00000000E+00
  0.00000000E+00  0.00000000E+00  0.00000000E+00
  0.00000000E+00  0.00000000E+00  0.00000000E+00
  0.00000000E+00  0.00000000E+00  0.00000000E+00
  0.00000000E+00  0.00000000E+00  0.00000000E+00
  0.00000000E+00  0.00000000E+00  0.00000000E+00
  0.00000000E+00  0.00000000E+00  0.00000000E+00
  0.00000000E+00  0.00000000E+00  0.00000000E+00
  0.00000000E+00  0.00000000E+00  0.00000000E+00
  0.00000000E+00  0.00000000E+00  0.00000000E+00
