Graphene-B4C3 Top with lattice parameter
   1.00000000000000     
     4.1655821922031482    2.4049999999999994    0.0000000000000000
    -4.1655821922031482    2.4049999999999994    0.0000000000000000
     0.0000000000000000    0.0000000000000000   15.0000000000000000
   B    C 
     4    11
Direct
  0.0040377553403431  0.0026908206385181  0.1064835740188493
  0.3589749526842824  0.0029196312233146  0.0996183682013259
  0.0037952063200484  0.3573859698627356  0.0996196029372459
  0.6493063346005300  0.6477287671790629  0.0996143423451738
  0.3279620213722153  0.3263875603956348  0.1003588004321044
  0.6803246905313335  0.0029125178118403  0.1003597588926237
  0.0038032564127960  0.6787388424621766  0.1003572636195000
  0.0001496680647980  0.5000787051811003  0.3346406714075007
  0.1668182072402973  0.3334802432895544  0.3346814592162397
  0.0001348793442089  0.0000827570699670  0.3345963898589084
  0.1668531510825386  0.8334033913957549  0.3346861398465232
  0.5001416196100232  0.5001057975623211  0.3346433946454578
  0.6668042921307022  0.3334178673335575  0.3345311720231760
  0.5001135715689708  0.0000676284823277  0.3346399223007112
  0.6667410603636038  0.8333668334454585  0.3346818069213431
 
  0.00000000E+00  0.00000000E+00  0.00000000E+00
  0.00000000E+00  0.00000000E+00  0.00000000E+00
  0.00000000E+00  0.00000000E+00  0.00000000E+00
  0.00000000E+00  0.00000000E+00  0.00000000E+00
  0.00000000E+00  0.00000000E+00  0.00000000E+00
  0.00000000E+00  0.00000000E+00  0.00000000E+00
  0.00000000E+00  0.00000000E+00  0.00000000E+00
  0.00000000E+00  0.00000000E+00  0.00000000E+00
  0.00000000E+00  0.00000000E+00  0.00000000E+00
  0.00000000E+00  0.00000000E+00  0.00000000E+00
  0.00000000E+00  0.00000000E+00  0.00000000E+00
  0.00000000E+00  0.00000000E+00  0.00000000E+00
  0.00000000E+00  0.00000000E+00  0.00000000E+00
  0.00000000E+00  0.00000000E+00  0.00000000E+00
  0.00000000E+00  0.00000000E+00  0.00000000E+00
