Graphene-B4C3 Hollow 1 with lattice para
   1.00000000000000     
     4.1855007764901915    2.4165000000000001    0.0000000000000000
    -4.1855007764901915    2.4165000000000001    0.0000000000000000
     0.0000000000000000    0.0000000000000000   15.0000000000000000
   B    C 
     4    11
Direct
  0.0178855244642663 -0.0094724189158109  0.0983666995846529
  0.3727471048909555 -0.0095479498174644  0.1014871035869996
  0.0177885928680895  0.3455601497515745  0.1021747378749610
  0.6630997302297083  0.6354428127157807  0.1019588151750819
  0.3420718625737270  0.3142446594505712  0.1013721524428496
  0.6942047300121678 -0.0092928466933478  0.1014821343177541
  0.0178825874697607  0.6664258823082815  0.1014587914796658
  0.0991311110729631  0.3998245470953594  0.3378323883958891
  0.2659031805676898  0.2329566968581426  0.3381024443766137
  0.0991634357323388  0.8998280578946795  0.3379548030488377
  0.2658486720481256  0.7328818512514084  0.3379276502216298
  0.5989040485258923  0.3996805572084972  0.3378637783191075
  0.7656374291780241  0.2327806521945271  0.3378854007241916
  0.5989463631303765  0.8998092894770321  0.3379311693716268
  0.7656351827914645  0.7327565036652364  0.3379812644134595
 
  0.00000000E+00  0.00000000E+00  0.00000000E+00
  0.00000000E+00  0.00000000E+00  0.00000000E+00
  0.00000000E+00  0.00000000E+00  0.00000000E+00
  0.00000000E+00  0.00000000E+00  0.00000000E+00
  0.00000000E+00  0.00000000E+00  0.00000000E+00
  0.00000000E+00  0.00000000E+00  0.00000000E+00
  0.00000000E+00  0.00000000E+00  0.00000000E+00
  0.00000000E+00  0.00000000E+00  0.00000000E+00
  0.00000000E+00  0.00000000E+00  0.00000000E+00
  0.00000000E+00  0.00000000E+00  0.00000000E+00
  0.00000000E+00  0.00000000E+00  0.00000000E+00
  0.00000000E+00  0.00000000E+00  0.00000000E+00
  0.00000000E+00  0.00000000E+00  0.00000000E+00
  0.00000000E+00  0.00000000E+00  0.00000000E+00
  0.00000000E+00  0.00000000E+00  0.00000000E+00
