Graphene-BC3 Bridge with lattice paramet
   1.00000000000000     
     4.3647680350735696    2.5199999999999996    0.0000000000000000
    -4.3647680350735696    2.5199999999999996    0.0000000000000000
     0.0000000000000000    0.0000000000000000   15.0000000000000000
   B    C 
     2    14
Direct
  0.3129649012405865  0.6959302179642526  0.1024234608338737
  0.6463906011860555  0.3625224877716274  0.1019828760136913
  0.1392551787375958  0.3486173142364873  0.1014852703518772
  0.2988910242793523  0.1889264623498083  0.1025249285274416
  0.1392030705684340  0.8696666104782134  0.1030549956798259
  0.8200440981460179  0.1888805831689971  0.1009607485099303
  0.6602612908258789  0.8695988947207386  0.1015228747741878
  0.8200305342290971  0.7100468833557613  0.1025579020396519
  0.2753629544056366  0.2231463871751629  0.3243775077397352
  0.4419915923781740  0.0566182434207088  0.3243096218767961
  0.2753452388890718  0.7232504075762216  0.3240597336984956
  0.4420785358132676  0.5565140593970774  0.3242223180688106
  0.7753420732853181  0.2232519653707834  0.3242502331443952
  0.9420714647408325  0.0565234366080262  0.3242531644057612
  0.7754516848446282  0.7232343142419719  0.3243767601110221
  0.9419744230967585  0.5565970654974877  0.3243042708911612
 
  0.00000000E+00  0.00000000E+00  0.00000000E+00
  0.00000000E+00  0.00000000E+00  0.00000000E+00
  0.00000000E+00  0.00000000E+00  0.00000000E+00
  0.00000000E+00  0.00000000E+00  0.00000000E+00
  0.00000000E+00  0.00000000E+00  0.00000000E+00
  0.00000000E+00  0.00000000E+00  0.00000000E+00
  0.00000000E+00  0.00000000E+00  0.00000000E+00
  0.00000000E+00  0.00000000E+00  0.00000000E+00
  0.00000000E+00  0.00000000E+00  0.00000000E+00
  0.00000000E+00  0.00000000E+00  0.00000000E+00
  0.00000000E+00  0.00000000E+00  0.00000000E+00
  0.00000000E+00  0.00000000E+00  0.00000000E+00
  0.00000000E+00  0.00000000E+00  0.00000000E+00
  0.00000000E+00  0.00000000E+00  0.00000000E+00
  0.00000000E+00  0.00000000E+00  0.00000000E+00
  0.00000000E+00  0.00000000E+00  0.00000000E+00
