Graphene-Borophene Hollow 2 with lattice
   1.00000000000000     
     4.3154045870578575    2.4914999999999998    0.0000000000000000
    -4.3154045870578575    2.4914999999999998    0.0000000000000000
     0.0000000000000000    0.0000000000000000   15.0000000000000000
   B    C 
     8     8
Direct
  0.6695033336307366 -0.0000519026969786  0.1669148254330353
  0.3304437636722879 -0.0000519026969786  0.1669148254330353
  0.0000519026969786  0.3304956663692666  0.1669148254330353
  0.0000519026969786  0.6695552363277147  0.1669148254330353
  0.3304437636722879  0.3304956663692666  0.1669148254330353
  0.6695033336307366  0.6695552363277147  0.1669148254330353
  0.6666659999999993  0.3333330000000032  0.1616757066625146
  0.3333330000000032  0.6666659999999993  0.1728053458474432
  0.3333501239851649  0.1666750619925896  0.4035903300949548
  0.5000207341623767  0.0000414683247541  0.4036618470710847
  0.3333326666666636  0.6666663333333389  0.4036000958165387
  0.5000207341623767  0.4999782658376252  0.4036618470710847
  0.8333239380074138  0.1666750619925896  0.4035903300949548
  0.9999996666666675  0.9999993333333350  0.4034733675771640
  0.8333239380074138  0.6666488760148380  0.4035903300949548
 -0.0000424683247517  0.4999782658376252  0.4036618470710847
 
  0.00000000E+00  0.00000000E+00  0.00000000E+00
  0.00000000E+00  0.00000000E+00  0.00000000E+00
  0.00000000E+00  0.00000000E+00  0.00000000E+00
  0.00000000E+00  0.00000000E+00  0.00000000E+00
  0.00000000E+00  0.00000000E+00  0.00000000E+00
  0.00000000E+00  0.00000000E+00  0.00000000E+00
  0.00000000E+00  0.00000000E+00  0.00000000E+00
  0.00000000E+00  0.00000000E+00  0.00000000E+00
  0.00000000E+00  0.00000000E+00  0.00000000E+00
  0.00000000E+00  0.00000000E+00  0.00000000E+00
  0.00000000E+00  0.00000000E+00  0.00000000E+00
  0.00000000E+00  0.00000000E+00  0.00000000E+00
  0.00000000E+00  0.00000000E+00  0.00000000E+00
  0.00000000E+00  0.00000000E+00  0.00000000E+00
  0.00000000E+00  0.00000000E+00  0.00000000E+00
  0.00000000E+00  0.00000000E+00  0.00000000E+00
