Graphene-BC3 Top with lattice parameter 
   1.00000000000000     
     4.3910952073486174    2.5352000000000001    0.0000000000000000
    -4.3910952073486174    2.5352000000000001    0.0000000000000000
     0.0000000000000000    0.0000000000000000   15.0000000000000000
   B    C 
     2    14
Direct
  0.3384794230165759  0.6692341583530038  0.0999457226895045
  0.6718118298174267  0.3359010528467828  0.0999453381675716
  0.1646033348029574  0.3214787079770343  0.0996290377764821
  0.3240589298860775  0.1620251405789819  0.0996267091751542
  0.1646032049066004  0.8431159243011432  0.0996290221504214
  0.8456962034911549  0.1620219167277219  0.0996349234065862
  0.6862469723878705  0.8431187361394626  0.0996372170788359
  0.8456953863145521  0.6836651286372828  0.0996348895228777
  0.1664167082232406  0.3330623185891372  0.3291633691751366
  0.3329831313279413  0.1664955936864031  0.3291645701363393
  0.1664167394244859  0.8333627484879651  0.3291633829304751
  0.3331813653689754  0.6665947089132586  0.3288722982782935
  0.6665146361302342  0.3332615324623667  0.3288722757086635
  0.8332837062468774  0.1664959216856674  0.3291608698212194
  0.6667167010828838  0.8333625617881609  0.3291594922071394
  0.8332837275721655  0.6667958488256365  0.3291608817753199
 
  0.00000000E+00  0.00000000E+00  0.00000000E+00
  0.00000000E+00  0.00000000E+00  0.00000000E+00
  0.00000000E+00  0.00000000E+00  0.00000000E+00
  0.00000000E+00  0.00000000E+00  0.00000000E+00
  0.00000000E+00  0.00000000E+00  0.00000000E+00
  0.00000000E+00  0.00000000E+00  0.00000000E+00
  0.00000000E+00  0.00000000E+00  0.00000000E+00
  0.00000000E+00  0.00000000E+00  0.00000000E+00
  0.00000000E+00  0.00000000E+00  0.00000000E+00
  0.00000000E+00  0.00000000E+00  0.00000000E+00
  0.00000000E+00  0.00000000E+00  0.00000000E+00
  0.00000000E+00  0.00000000E+00  0.00000000E+00
  0.00000000E+00  0.00000000E+00  0.00000000E+00
  0.00000000E+00  0.00000000E+00  0.00000000E+00
  0.00000000E+00  0.00000000E+00  0.00000000E+00
  0.00000000E+00  0.00000000E+00  0.00000000E+00
