Graphene-BC3 Hollow with lattice paramet
   1.00000000000000     
     4.3682321366887082    2.5219999999999998    0.0000000000000000
    -4.3682321366887082    2.5219999999999998    0.0000000000000000
     0.0000000000000000    0.0000000000000000   15.0000000000000000
   B    C 
     2    14
Direct
  0.3382319658381230  0.6691089970563402  0.1135798493399655
  0.6715681405289801  0.3357800368068760  0.1132435692397852
  0.1645111452109612  0.3216693532794023  0.1132271918754988
  0.3240438177795221  0.1620159492321079  0.1132360101932053
  0.1645096881764976  0.8428321593106680  0.1132288024733488
  0.8453237907907265  0.1620161948427625  0.1132281137847095
  0.6856668906453846  0.8428291992245751  0.1132216531832122
  0.8453205570485078  0.6832948184445101  0.1132297530960977
  0.3334553588744791  0.1667325900134213  0.3379808107558658
  0.5001453292296518  0.0001462655708238  0.3379533341928800
  0.3334324416723653  0.6667211011501787  0.3376521241488772
  0.5001454578054826  0.5000079758778144  0.3379533430804632
  0.8334262923709609  0.1667337529337788  0.3379758612453141
  0.0001043785862908  0.0000567115823868  0.3379598011067011
  0.8334261447834914  0.6667020828658548  0.3379758906043593
  0.0000139339919081  0.5000114784751949  0.3379538916797166
 
  0.00000000E+00  0.00000000E+00  0.00000000E+00
  0.00000000E+00  0.00000000E+00  0.00000000E+00
  0.00000000E+00  0.00000000E+00  0.00000000E+00
  0.00000000E+00  0.00000000E+00  0.00000000E+00
  0.00000000E+00  0.00000000E+00  0.00000000E+00
  0.00000000E+00  0.00000000E+00  0.00000000E+00
  0.00000000E+00  0.00000000E+00  0.00000000E+00
  0.00000000E+00  0.00000000E+00  0.00000000E+00
  0.00000000E+00  0.00000000E+00  0.00000000E+00
  0.00000000E+00  0.00000000E+00  0.00000000E+00
  0.00000000E+00  0.00000000E+00  0.00000000E+00
  0.00000000E+00  0.00000000E+00  0.00000000E+00
  0.00000000E+00  0.00000000E+00  0.00000000E+00
  0.00000000E+00  0.00000000E+00  0.00000000E+00
  0.00000000E+00  0.00000000E+00  0.00000000E+00
  0.00000000E+00  0.00000000E+00  0.00000000E+00
