Graphene-B4C3 Top with lattice parameter
   1.00000000000000     
     4.1967591067393890    2.4229999999999996    0.0000000000000000
    -4.1967591067393890    2.4229999999999996    0.0000000000000000
     0.0000000000000000    0.0000000000000000   15.0000000000000000
   B    C 
     4    11
Direct
  0.0042026503909719  0.0028741204627855  0.1068031163185184
  0.3589766183502617  0.0030355228070910  0.1005130530545866
  0.0037970590554168  0.3573094652470710  0.1005075949107998
  0.6497232714985770  0.6478955891833216  0.1005228840665068
  0.3278360429422076  0.3263225549450632  0.1012141441352537
  0.6805729436319059  0.0027711146026349  0.1012584420619028
  0.0040264556680384  0.6791262604082834  0.1012642730687618
  0.0001032639921366  0.4999858945618258  0.3339733149849204
  0.1666181879529909  0.3333676125931199  0.3339681209623735
  0.0000274759784570  0.0000127930839226  0.3338862351569074
  0.1667647200833435  0.8334070170894630  0.3339740933945484
  0.5000558090482858  0.5001214298847152  0.3339774269072698
  0.6666814116551371  0.3333458158595224  0.3337141288370643
  0.4999181582187531 -0.0000657479697575  0.3339694733766826
  0.6666565982002097  0.8332578905742636  0.3339663654305863
 
  0.00000000E+00  0.00000000E+00  0.00000000E+00
  0.00000000E+00  0.00000000E+00  0.00000000E+00
  0.00000000E+00  0.00000000E+00  0.00000000E+00
  0.00000000E+00  0.00000000E+00  0.00000000E+00
  0.00000000E+00  0.00000000E+00  0.00000000E+00
  0.00000000E+00  0.00000000E+00  0.00000000E+00
  0.00000000E+00  0.00000000E+00  0.00000000E+00
  0.00000000E+00  0.00000000E+00  0.00000000E+00
  0.00000000E+00  0.00000000E+00  0.00000000E+00
  0.00000000E+00  0.00000000E+00  0.00000000E+00
  0.00000000E+00  0.00000000E+00  0.00000000E+00
  0.00000000E+00  0.00000000E+00  0.00000000E+00
  0.00000000E+00  0.00000000E+00  0.00000000E+00
  0.00000000E+00  0.00000000E+00  0.00000000E+00
  0.00000000E+00  0.00000000E+00  0.00000000E+00
