Graphene-B4C3 Top with lattice parameter
   1.00000000000000     
     4.1967591067393890    2.4229999999999996    0.0000000000000000
    -4.1967591067393890    2.4229999999999996    0.0000000000000000
     0.0000000000000000    0.0000000000000000   15.0000000000000000
   B    C 
     4    11
Direct
  0.0041801208788465  0.0027655265002322  0.1189094095381394
  0.3568769208713004  0.0030543582742634  0.0979533584116289
  0.0039095585895966  0.3551837192202177  0.0979547350302541
  0.6517578308330796  0.6500916393348777  0.0979462593579411
  0.3266167986957616  0.3248709657917730  0.1002626919980143
  0.6820870541199410  0.0031258052584574  0.1002446751505267
  0.0038547110738462  0.6803364135676681  0.1002380102279046
 -0.0000805802651564  0.5000102706642984  0.3337573946985262
  0.1666219167231822  0.3331527559345939  0.3338097375611550
  0.9999999727433171  0.0000027800423870  0.3336296270075780
  0.1665399529146777  0.8333838641734637  0.3338132395717550
  0.4999852017572022  0.4999070880920967  0.3337608702898368
  0.6666694076536740  0.3333322314854603  0.3336666616857518
  0.5000885639605140  0.0000808758191246  0.3337567495605099
  0.6668532361169102  0.8334690391744115  0.3338092465771605
 
  0.00000000E+00  0.00000000E+00  0.00000000E+00
  0.00000000E+00  0.00000000E+00  0.00000000E+00
  0.00000000E+00  0.00000000E+00  0.00000000E+00
  0.00000000E+00  0.00000000E+00  0.00000000E+00
  0.00000000E+00  0.00000000E+00  0.00000000E+00
  0.00000000E+00  0.00000000E+00  0.00000000E+00
  0.00000000E+00  0.00000000E+00  0.00000000E+00
  0.00000000E+00  0.00000000E+00  0.00000000E+00
  0.00000000E+00  0.00000000E+00  0.00000000E+00
  0.00000000E+00  0.00000000E+00  0.00000000E+00
  0.00000000E+00  0.00000000E+00  0.00000000E+00
  0.00000000E+00  0.00000000E+00  0.00000000E+00
  0.00000000E+00  0.00000000E+00  0.00000000E+00
  0.00000000E+00  0.00000000E+00  0.00000000E+00
  0.00000000E+00  0.00000000E+00  0.00000000E+00
