Graphene-Borophene Hollow_1 with lattice
   1.00000000000000     
     4.3119404854427197    2.4895000000000000    0.0000000000000000
    -4.3119404854427197    2.4895000000000000    0.0000000000000000
     0.0000000000000000    0.0000000000000000   15.0000000000000000
    B
    8
Direct
  0.6797436445649612 -0.0110240195322354  0.0993808702881524
  0.3418676098868047 -0.0109412328321126  0.0997080362871282
  0.0110240195322354  0.3202553554350416  0.0993808702881524
  0.0109412328321126  0.6581313901131975  0.0997080362871282
  0.3418445129190688  0.3201138678239369  0.0987786681463254
  0.6798851321760653  0.6581544870809339  0.0987786681463254
  0.6772101374524944  0.3227888625475083  0.0891039104579253
  0.3440090258611508  0.6559899741388520  0.1106419851545100
