Graphene-B4C3 Bridge with lattice parame
   1.00000000000000     
     4.2002232083545250    2.4249999999999989    0.0000000000000000
    -4.2002232083545250    2.4249999999999989    0.0000000000000000
     0.0000000000000000    0.0000000000000000   15.0000000000000000
   B    C 
     4    11
Direct
  0.0452096409182564 -0.0360893517071815  0.1038829957079715
  0.4003404678588582 -0.0358324973982940  0.1013689631305474
  0.0449411898696351  0.3187989031966506  0.1013754278168684
  0.6903387053759675  0.6087338654353460  0.1013741684929559
  0.3688878092563292  0.2872926450909435  0.1015881545603634
  0.7218015118667239 -0.0358436937241058  0.1015851821389843
  0.0449387090432056  0.6402181080478226  0.1015967455520542
  0.0474594605264382  0.4506779393023143  0.3365664064688902
  0.2141060310377723  0.2840623504167746  0.3366276475055964
  0.0474429095559680  0.9506947825535060  0.3365386086804597
  0.2141501293545765  0.7840171326669154  0.3366199951412976
  0.5474444613240868  0.4507090759750447  0.3365800400609158
  0.7141036414530680  0.2840256030008578  0.3364829063082970
  0.5474049974827824  0.9506646609195186  0.3365817089209392
  0.7140576684096543  0.7839711428905862  0.3366103828471954
 
  0.00000000E+00  0.00000000E+00  0.00000000E+00
  0.00000000E+00  0.00000000E+00  0.00000000E+00
  0.00000000E+00  0.00000000E+00  0.00000000E+00
  0.00000000E+00  0.00000000E+00  0.00000000E+00
  0.00000000E+00  0.00000000E+00  0.00000000E+00
  0.00000000E+00  0.00000000E+00  0.00000000E+00
  0.00000000E+00  0.00000000E+00  0.00000000E+00
  0.00000000E+00  0.00000000E+00  0.00000000E+00
  0.00000000E+00  0.00000000E+00  0.00000000E+00
  0.00000000E+00  0.00000000E+00  0.00000000E+00
  0.00000000E+00  0.00000000E+00  0.00000000E+00
  0.00000000E+00  0.00000000E+00  0.00000000E+00
  0.00000000E+00  0.00000000E+00  0.00000000E+00
  0.00000000E+00  0.00000000E+00  0.00000000E+00
  0.00000000E+00  0.00000000E+00  0.00000000E+00
