Graphene-B4C3 Hollow 1 with lattice para
   1.00000000000000     
     4.2010892337583119    2.4255000000000000    0.0000000000000000
    -4.2010892337583119    2.4255000000000000    0.0000000000000000
     0.0000000000000000    0.0000000000000000   15.0000000000000000
   B    C 
     4    11
Direct
  0.0325049652463889 -0.0226555331024689  0.0997587666095900
  0.3875557615727973 -0.0225138129962034  0.1029936003200041
  0.0323636042652037  0.3323224626015803  0.1032276761738836
  0.6777184279891757  0.6223055853868054  0.1032046804911335
  0.3562395458925590  0.3007127444880533  0.1026818328207044
  0.7093493533404166 -0.0224059235459074  0.1027385769965022
  0.0325541093862700  0.6538063397002993  0.1027438279949487
  0.0861701111318372  0.4111361653272073  0.3367198884999922
  0.2529404527299207  0.2444598315693416  0.3369624385773826
  0.0861809522117341  0.9111115587237893  0.3369159070271156
  0.2529934975530808  0.7444603460817022  0.3367874256489647
  0.5862430756145783  0.4111645572575680  0.3368044630835176
  0.7529263643942020  0.2443809947644774  0.3366145322071859
  0.5862287661016400  0.9111466539365406  0.3367917842419929
  0.7528805681257450  0.7444464742516840  0.3368339326404030
 
  0.00000000E+00  0.00000000E+00  0.00000000E+00
  0.00000000E+00  0.00000000E+00  0.00000000E+00
  0.00000000E+00  0.00000000E+00  0.00000000E+00
  0.00000000E+00  0.00000000E+00  0.00000000E+00
  0.00000000E+00  0.00000000E+00  0.00000000E+00
  0.00000000E+00  0.00000000E+00  0.00000000E+00
  0.00000000E+00  0.00000000E+00  0.00000000E+00
  0.00000000E+00  0.00000000E+00  0.00000000E+00
  0.00000000E+00  0.00000000E+00  0.00000000E+00
  0.00000000E+00  0.00000000E+00  0.00000000E+00
  0.00000000E+00  0.00000000E+00  0.00000000E+00
  0.00000000E+00  0.00000000E+00  0.00000000E+00
  0.00000000E+00  0.00000000E+00  0.00000000E+00
  0.00000000E+00  0.00000000E+00  0.00000000E+00
  0.00000000E+00  0.00000000E+00  0.00000000E+00
