Graphene-B4C3 Hollow_1 with lattice para
   1.00000000000000     
     4.1967591067393899    2.4230000000000000    0.0000000000000000
    -4.1967591067393899    2.4230000000000000    0.0000000000000000
     0.0000000000000000    0.0000000000000000   15.0000000000000000
   B    C 
     4    11
Direct
  0.0041536073678543  0.0026721015370299  0.1203413379052876
  0.3569533512947416  0.0028550305604824  0.0974889342262841
  0.0042385768318738  0.3555069917146056  0.0974925637235273
  0.6514229529441167  0.6500655703952489  0.0974768786615599
  0.3280864628224336  0.3267193752228721  0.1003050777105869
  0.6802777482657802  0.0027808524732649  0.1002756210064604
  0.0041653004731970  0.6788380780964971  0.1002655867662980
  0.1111104444444422  0.3888885555555603  0.3370000000000033
  0.2777774444444461  0.2222215555555564  0.3370000000000033
  0.1111104444444422  0.8888885555555603  0.3370000000000033
  0.2777774444444461  0.7222215555555564  0.3370000000000033
  0.6111104444444422  0.3888885555555603  0.3370000000000033
  0.7777774444444461  0.2222215555555564  0.3370000000000033
  0.6111104444444422  0.8888885555555603  0.3370000000000033
  0.7777774444444461  0.7222215555555564  0.3370000000000033
 
  0.00000000E+00  0.00000000E+00  0.00000000E+00
  0.00000000E+00  0.00000000E+00  0.00000000E+00
  0.00000000E+00  0.00000000E+00  0.00000000E+00
  0.00000000E+00  0.00000000E+00  0.00000000E+00
  0.00000000E+00  0.00000000E+00  0.00000000E+00
  0.00000000E+00  0.00000000E+00  0.00000000E+00
  0.00000000E+00  0.00000000E+00  0.00000000E+00
  0.00000000E+00  0.00000000E+00  0.00000000E+00
  0.00000000E+00  0.00000000E+00  0.00000000E+00
  0.00000000E+00  0.00000000E+00  0.00000000E+00
  0.00000000E+00  0.00000000E+00  0.00000000E+00
  0.00000000E+00  0.00000000E+00  0.00000000E+00
  0.00000000E+00  0.00000000E+00  0.00000000E+00
  0.00000000E+00  0.00000000E+00  0.00000000E+00
  0.00000000E+00  0.00000000E+00  0.00000000E+00
