Graphene-B4C3 Hollow_1 with lattice para
   1.00000000000000     
     4.1967591067393899    2.4230000000000000    0.0000000000000000
    -4.1967591067393899    2.4230000000000000    0.0000000000000000
     0.0000000000000000    0.0000000000000000   15.0000000000000000
   B    C 
     4    11
Direct
  0.0496797164909634 -0.0386797293778885  0.1031308289946373
  0.4048478231510952 -0.0384773411800621  0.1020438414681372
  0.0494862338492223  0.3162432683277433  0.1020884861576263
  0.6948255636399866  0.6061233984125620  0.1020814790768002
  0.3734610838836943  0.2847599137670069  0.1020889123547544
  0.7262520816171132 -0.0384896761435305  0.1021700996574298
  0.0494851209266636  0.6375665426485074  0.1021178690480337
  0.0712983473722493  0.4252041688951550  0.3367102646192787
  0.2379321058050079  0.2585314916094951  0.3368158117105797
  0.0712776969689874  0.9251964048021486  0.3367154916629183
  0.2380011732449010  0.7585413234866050  0.3367667012582055
  0.5712735350041688  0.4252104011688993  0.3367399385690147
  0.7379198746461414  0.2585063782192772  0.3366488967748275
  0.5712125489617500  0.9251471586848495  0.3367691546790275
  0.7378966499936045  0.7584947411236975  0.3367582239687600
 
  0.00000000E+00  0.00000000E+00  0.00000000E+00
  0.00000000E+00  0.00000000E+00  0.00000000E+00
  0.00000000E+00  0.00000000E+00  0.00000000E+00
  0.00000000E+00  0.00000000E+00  0.00000000E+00
  0.00000000E+00  0.00000000E+00  0.00000000E+00
  0.00000000E+00  0.00000000E+00  0.00000000E+00
  0.00000000E+00  0.00000000E+00  0.00000000E+00
  0.00000000E+00  0.00000000E+00  0.00000000E+00
  0.00000000E+00  0.00000000E+00  0.00000000E+00
  0.00000000E+00  0.00000000E+00  0.00000000E+00
  0.00000000E+00  0.00000000E+00  0.00000000E+00
  0.00000000E+00  0.00000000E+00  0.00000000E+00
  0.00000000E+00  0.00000000E+00  0.00000000E+00
  0.00000000E+00  0.00000000E+00  0.00000000E+00
  0.00000000E+00  0.00000000E+00  0.00000000E+00
