Graphene-B4C3 Hollow 1 with lattice para
   1.00000000000000     
     4.1898309035091144    2.4190000000000000    0.0000000000000000
    -4.1898309035091144    2.4190000000000000    0.0000000000000000
     0.0000000000000000    0.0000000000000000   15.0000000000000000
   B    C 
     4    11
Direct
  0.0511733085042963 -0.0395305704522137  0.0967273277219336
  0.4069308666892308 -0.0390184191429029  0.1009007318960081
  0.0511893501300579  0.3160847463972390  0.1009685074136921
  0.6962903803382402  0.6056161659725938  0.1008956078635394
  0.3751198741036250  0.2846670502796687  0.1005642032894951
  0.7272890167850323 -0.0393728475051950  0.0999406349122961
  0.0513261173688499  0.6366411196901637  0.1005077304723916
  0.0699215290686323  0.4256238219289613  0.3388895366531983
  0.2364277149740393  0.2589153520208246  0.3390192140726420
  0.0698439598096223  0.9257109011190946  0.3388387726118348
  0.2364620714819597  0.7590941733573240  0.3389284497666198
  0.5698596915082790  0.4257383434463795  0.3388417571463651
  0.7365575131191751  0.2591182630642708  0.3388954394556015
  0.5698554791146259  0.9255308754259305  0.3389358418609095
  0.7366026825598837  0.7590594688423302  0.3389255781967953
 
  0.00000000E+00  0.00000000E+00  0.00000000E+00
  0.00000000E+00  0.00000000E+00  0.00000000E+00
  0.00000000E+00  0.00000000E+00  0.00000000E+00
  0.00000000E+00  0.00000000E+00  0.00000000E+00
  0.00000000E+00  0.00000000E+00  0.00000000E+00
  0.00000000E+00  0.00000000E+00  0.00000000E+00
  0.00000000E+00  0.00000000E+00  0.00000000E+00
  0.00000000E+00  0.00000000E+00  0.00000000E+00
  0.00000000E+00  0.00000000E+00  0.00000000E+00
  0.00000000E+00  0.00000000E+00  0.00000000E+00
  0.00000000E+00  0.00000000E+00  0.00000000E+00
  0.00000000E+00  0.00000000E+00  0.00000000E+00
  0.00000000E+00  0.00000000E+00  0.00000000E+00
  0.00000000E+00  0.00000000E+00  0.00000000E+00
  0.00000000E+00  0.00000000E+00  0.00000000E+00
