k-points 40
0
Gamma
40    40    1
0    0    0