Graphene-B4C3 Hollow 2 with lattice para
   1.00000000000000     
     4.1846347510864073    2.4159999999999999    0.0000000000000000
    -4.1846347510864073    2.4159999999999999    0.0000000000000000
     0.0000000000000000    0.0000000000000000   15.0000000000000000
   B    C 
     4    11
Direct
  0.0043790129984068  0.0029065519531496  0.0994127130363323
  0.3595299954609162  0.0029124810073846  0.1012812415200971
  0.0043877989591805  0.3580581657723819  0.1012834200867190
  0.6492377731982539  0.6477624617475144  0.1012872925963035
  0.3281831826672165  0.3267075975232578  0.1010011792953293
  0.6805889598653651  0.0029127223489894  0.1009975604762675
  0.0043888054845888  0.6791142886877825  0.1009972163468942
  0.1664690439858198  0.3332141123153229  0.3381495092042953
  0.3331567608824899  0.1665273982442806  0.3381512908171582
  0.1665098857971056  0.8332358187280411  0.3381535977403403
  0.3331596120747582  0.6665507835925446  0.3380403122352160
  0.6664930789952020  0.3332159712590980  0.3380403111950439
  0.8331776705275835  0.1665667832271316  0.3381529895254357
  0.6664934177780051  0.8331978081164029  0.3381492696091411
  0.8331390013251142  0.6665510554767297  0.3381480963154536
 
  0.00000000E+00  0.00000000E+00  0.00000000E+00
  0.00000000E+00  0.00000000E+00  0.00000000E+00
  0.00000000E+00  0.00000000E+00  0.00000000E+00
  0.00000000E+00  0.00000000E+00  0.00000000E+00
  0.00000000E+00  0.00000000E+00  0.00000000E+00
  0.00000000E+00  0.00000000E+00  0.00000000E+00
  0.00000000E+00  0.00000000E+00  0.00000000E+00
  0.00000000E+00  0.00000000E+00  0.00000000E+00
  0.00000000E+00  0.00000000E+00  0.00000000E+00
  0.00000000E+00  0.00000000E+00  0.00000000E+00
  0.00000000E+00  0.00000000E+00  0.00000000E+00
  0.00000000E+00  0.00000000E+00  0.00000000E+00
  0.00000000E+00  0.00000000E+00  0.00000000E+00
  0.00000000E+00  0.00000000E+00  0.00000000E+00
  0.00000000E+00  0.00000000E+00  0.00000000E+00
