Graphene-B4C3 Top with lattice parameter
   1.00000000000000     
     4.1976251321431741    2.4235000000000002    0.0000000000000000
    -4.1976251321431741    2.4235000000000002    0.0000000000000000
     0.0000000000000000    0.0000000000000000   15.0000000000000000
   B    C 
     4    11
Direct
  0.0040700815084367  0.0026944245960034  0.1012164525934975
  0.3592698328946307  0.0030061057922478  0.1006250140219902
  0.0037742950310676  0.3576034908856359  0.1006258834676436
  0.6491780996801960  0.6475178451724192  0.1006218298636421
  0.3277996973251217  0.3261372228794057  0.1006247250611575
  0.6806446043099806  0.0030016371316972  0.1006239465377961
  0.0037749771317364  0.6789833535765272  0.1006208169841303
  0.0001154881460040  0.5000542109545928  0.3348261070401076
  0.1667697025019514  0.3334448202424235  0.3348577991954723
  0.0000984135329933  0.0000606632707227  0.3347807016871714
  0.1668083399730971  0.8333889816757316  0.3348619430099011
  0.5001071856184826  0.5000875017650094  0.3348290937919315
  0.6667639133410247  0.3333955015553728  0.3347159088570172
  0.5000723732250145  0.0000432414024473  0.3348245070108837
  0.6667136624469566  0.8333483324330898  0.3348579375443407
 
  0.00000000E+00  0.00000000E+00  0.00000000E+00
  0.00000000E+00  0.00000000E+00  0.00000000E+00
  0.00000000E+00  0.00000000E+00  0.00000000E+00
  0.00000000E+00  0.00000000E+00  0.00000000E+00
  0.00000000E+00  0.00000000E+00  0.00000000E+00
  0.00000000E+00  0.00000000E+00  0.00000000E+00
  0.00000000E+00  0.00000000E+00  0.00000000E+00
  0.00000000E+00  0.00000000E+00  0.00000000E+00
  0.00000000E+00  0.00000000E+00  0.00000000E+00
  0.00000000E+00  0.00000000E+00  0.00000000E+00
  0.00000000E+00  0.00000000E+00  0.00000000E+00
  0.00000000E+00  0.00000000E+00  0.00000000E+00
  0.00000000E+00  0.00000000E+00  0.00000000E+00
  0.00000000E+00  0.00000000E+00  0.00000000E+00
  0.00000000E+00  0.00000000E+00  0.00000000E+00
