Graphene-B4C3 Hollow 1 with lattice para
   1.00000000000000     
     4.2028212845658803    2.4264999999999999    0.0000000000000000
    -4.2028212845658803    2.4264999999999999    0.0000000000000000
     0.0000000000000000    0.0000000000000000   15.0000000000000000
   B    C 
     4    11
Direct
  0.0462683717230461 -0.0350269504468069  0.0999746169386341
  0.4014558845960720 -0.0348025211891877  0.1037043754627543
  0.0461504267196625  0.3197706514348214  0.1038031321909945
  0.6916297446287812  0.6099056662801844  0.1037865836376975
  0.3700777514561682  0.2883955006689288  0.1031746030436917
  0.7230696937217554 -0.0348707925926249  0.1033304654453387
  0.0461042476685587  0.6412025904497760  0.1032260318231470
  0.0742205294141302  0.4219930980400057  0.3363241889809830
  0.2408507754413276  0.2553719386551742  0.3364154004000249
  0.0741972963493125  0.9220028114560123  0.3363328928892346
  0.2409049902413485  0.7553510115597516  0.3363536746468253
  0.5741728725420754  0.4220100574320518  0.3363539374336353
  0.7408339734566914  0.2553396727020518  0.3362526262876741
  0.5741246172200448  0.9219407440444816  0.3364038040973164
  0.7407883803765744  0.7552949659498487  0.3363430000553704
 
  0.00000000E+00  0.00000000E+00  0.00000000E+00
  0.00000000E+00  0.00000000E+00  0.00000000E+00
  0.00000000E+00  0.00000000E+00  0.00000000E+00
  0.00000000E+00  0.00000000E+00  0.00000000E+00
  0.00000000E+00  0.00000000E+00  0.00000000E+00
  0.00000000E+00  0.00000000E+00  0.00000000E+00
  0.00000000E+00  0.00000000E+00  0.00000000E+00
  0.00000000E+00  0.00000000E+00  0.00000000E+00
  0.00000000E+00  0.00000000E+00  0.00000000E+00
  0.00000000E+00  0.00000000E+00  0.00000000E+00
  0.00000000E+00  0.00000000E+00  0.00000000E+00
  0.00000000E+00  0.00000000E+00  0.00000000E+00
  0.00000000E+00  0.00000000E+00  0.00000000E+00
  0.00000000E+00  0.00000000E+00  0.00000000E+00
  0.00000000E+00  0.00000000E+00  0.00000000E+00
