Graphene-BC3 Bridge with lattice paramet
   1.00000000000000     
     4.3639020096697863    2.5194999999999999    0.0000000000000000
    -4.3639020096697863    2.5194999999999999    0.0000000000000000
     0.0000000000000000    0.0000000000000000   15.0000000000000000
   B    C 
     2    14
Direct
  0.3272157919467275  0.6809809181918717  0.1007738827607863
  0.6605566393735932  0.3476430870380988  0.1005954486704199
  0.1535378192701604  0.3336702279134328  0.1005274015226271
  0.3131171465300072  0.1739651456303235  0.1004467164346756
  0.1534897234708788  0.8546964041968866  0.1003873066456408
  0.8342095987080160  0.1739860340010309  0.1005558331858332
  0.6745237603892037  0.8546616721065721  0.1005046845027390
  0.8342225023909244  0.6950776565124208  0.1004252374399144
  0.2611243616011198  0.2380895672962221  0.3259293404691216
  0.4277390920740712  0.0715231277282411  0.3258327501548335
  0.2610997066508560  0.7382074900938265  0.3256328886688178
  0.4278406060183162  0.5714611023398104  0.3257134026358545
  0.7611425615609529  0.2381600437806162  0.3257380000454218
  0.9278447691142391  0.0714570859692579  0.3258509177440905
  0.7612147865493661  0.7381818358581718  0.3259287347551055
  0.9277798010182735  0.5715639346765401  0.3258241210307752
 
  0.00000000E+00  0.00000000E+00  0.00000000E+00
  0.00000000E+00  0.00000000E+00  0.00000000E+00
  0.00000000E+00  0.00000000E+00  0.00000000E+00
  0.00000000E+00  0.00000000E+00  0.00000000E+00
  0.00000000E+00  0.00000000E+00  0.00000000E+00
  0.00000000E+00  0.00000000E+00  0.00000000E+00
  0.00000000E+00  0.00000000E+00  0.00000000E+00
  0.00000000E+00  0.00000000E+00  0.00000000E+00
  0.00000000E+00  0.00000000E+00  0.00000000E+00
  0.00000000E+00  0.00000000E+00  0.00000000E+00
  0.00000000E+00  0.00000000E+00  0.00000000E+00
  0.00000000E+00  0.00000000E+00  0.00000000E+00
  0.00000000E+00  0.00000000E+00  0.00000000E+00
  0.00000000E+00  0.00000000E+00  0.00000000E+00
  0.00000000E+00  0.00000000E+00  0.00000000E+00
  0.00000000E+00  0.00000000E+00  0.00000000E+00
