Graphene-B4C3 Bridge with lattice parame
   1.00000000000000     
     4.2166776910264314    2.4344999999999999    0.0000000000000000
    -4.2166776910264314    2.4344999999999999    0.0000000000000000
     0.0000000000000000    0.0000000000000000   15.0000000000000000
   B    C 
     4    11
Direct
  0.0349065187622169 -0.0263233885022256  0.1025023701385076
  0.3899472275584808 -0.0261561649393926  0.1016437255567553
  0.0345193339367996  0.3284142481932213  0.1016293022026470
  0.6800252343986649  0.6185348878635681  0.1016286719397133
  0.3584381060840975  0.2968186572056412  0.1015776449379043
  0.7117012522970098 -0.0260157743197027  0.1018533412750594
  0.0349821811849234  0.6502201237845573  0.1016322091240751
  0.0564545176276103  0.4421490335610776  0.3366148473245558
  0.2230949997291248  0.2755146165297979  0.3366239428288373
  0.0564265980569774  0.9421644086172419  0.3365733972092659
  0.2231118338964428  0.7755007716571976  0.3366447647608016
  0.5564237827788193  0.4421739087918630  0.3366367370393536
  0.7230927872813242  0.2754901930688282  0.3365501664433782
  0.5564136346040984  0.9421548134757992  0.3366637355924310
  0.7230893251367325  0.7754603316792250  0.3366044769600504
 
  0.00000000E+00  0.00000000E+00  0.00000000E+00
  0.00000000E+00  0.00000000E+00  0.00000000E+00
  0.00000000E+00  0.00000000E+00  0.00000000E+00
  0.00000000E+00  0.00000000E+00  0.00000000E+00
  0.00000000E+00  0.00000000E+00  0.00000000E+00
  0.00000000E+00  0.00000000E+00  0.00000000E+00
  0.00000000E+00  0.00000000E+00  0.00000000E+00
  0.00000000E+00  0.00000000E+00  0.00000000E+00
  0.00000000E+00  0.00000000E+00  0.00000000E+00
  0.00000000E+00  0.00000000E+00  0.00000000E+00
  0.00000000E+00  0.00000000E+00  0.00000000E+00
  0.00000000E+00  0.00000000E+00  0.00000000E+00
  0.00000000E+00  0.00000000E+00  0.00000000E+00
  0.00000000E+00  0.00000000E+00  0.00000000E+00
  0.00000000E+00  0.00000000E+00  0.00000000E+00
