Graphene-BC3 Top with lattice parameter 
   1.00000000000000     
     4.3682321366887082    2.5219999999999998    0.0000000000000000
    -4.3682321366887082    2.5219999999999998    0.0000000000000000
     0.0000000000000000    0.0000000000000000   15.0000000000000000
   B    C 
     2    14
Direct
  0.3383345847006368  0.6691676970542212  0.1002473398217306
  0.6716671532638160  0.3358338027766176  0.1002473240760618
  0.1646214494652010  0.3217371950306464  0.0999121513525506
  0.3242403269262335  0.1621199431386726  0.0999112401058999
  0.1646228708908927  0.8428851545735486  0.0999121490570971
  0.8453875148267989  0.1621188978683709  0.0999135564460514
  0.6857699685731768  0.8428840976816564  0.0999140964533097
  0.8453893360747804  0.6832674589695006  0.0999135458355978
  0.1665639950232074  0.3331346566921667  0.3288797436816983
  0.3331323090290176  0.1665658526481863  0.3288808823787046
  0.1665640044511698  0.8334291226020152  0.3288797433560571
  0.3333269819929524  0.6666631968191538  0.3285788291855890
  0.6666602654737021  0.3333300263589956  0.3285788286720160
  0.8334268535238667  0.1665663869072111  0.3288772948704223
  0.6668575416450726  0.8334286667815665  0.3288759805792929
  0.8334268441394945  0.6668598440974794  0.3288772941279413
 
  0.00000000E+00  0.00000000E+00  0.00000000E+00
  0.00000000E+00  0.00000000E+00  0.00000000E+00
  0.00000000E+00  0.00000000E+00  0.00000000E+00
  0.00000000E+00  0.00000000E+00  0.00000000E+00
  0.00000000E+00  0.00000000E+00  0.00000000E+00
  0.00000000E+00  0.00000000E+00  0.00000000E+00
  0.00000000E+00  0.00000000E+00  0.00000000E+00
  0.00000000E+00  0.00000000E+00  0.00000000E+00
  0.00000000E+00  0.00000000E+00  0.00000000E+00
  0.00000000E+00  0.00000000E+00  0.00000000E+00
  0.00000000E+00  0.00000000E+00  0.00000000E+00
  0.00000000E+00  0.00000000E+00  0.00000000E+00
  0.00000000E+00  0.00000000E+00  0.00000000E+00
  0.00000000E+00  0.00000000E+00  0.00000000E+00
  0.00000000E+00  0.00000000E+00  0.00000000E+00
  0.00000000E+00  0.00000000E+00  0.00000000E+00
