Graphene-BC3 Hollow with lattice paramet
   1.00000000000000     
     4.3673661112849240    2.5215000000000001    0.0000000000000000
    -4.3673661112849240    2.5215000000000001    0.0000000000000000
     0.0000000000000000    0.0000000000000000   15.0000000000000000
   B    C 
     2    14
Direct
  0.3382640506537892  0.6691307560964950  0.1004633416644893
  0.6715997308119631  0.3357986861242696  0.1001459606190228
  0.1645587732420533  0.3217219245718251  0.1001527887913127
  0.3241135399587877  0.1620556460128777  0.1001618894240101
  0.1645583703792072  0.8428353117000358  0.1001529929534184
  0.8453367112856177  0.1620540249686646  0.1001503904449794
  0.6856674542223354  0.8428327137007299  0.1001416152797284
  0.8453374005903278  0.6832810709382059  0.1001505353889229
  0.3334215276730461  0.1667111388025105  0.3253950785343211
  0.5001086828067852  0.0001192557924986  0.3253703845171471
  0.3334013732270227  0.6667010748506814  0.3250895429384977
  0.5001086877911198  0.4999906102799819  0.3253703888061741
  0.8333959756420952  0.1667124824118118  0.3253903694071419
  0.0000709155768692  0.0000360459100126  0.3253700271951687
  0.8333959834028868  0.6666842528161561  0.3253903753395768
  0.9999861560694271  0.4999936716899378  0.3253709853627604
 
  0.00000000E+00  0.00000000E+00  0.00000000E+00
  0.00000000E+00  0.00000000E+00  0.00000000E+00
  0.00000000E+00  0.00000000E+00  0.00000000E+00
  0.00000000E+00  0.00000000E+00  0.00000000E+00
  0.00000000E+00  0.00000000E+00  0.00000000E+00
  0.00000000E+00  0.00000000E+00  0.00000000E+00
  0.00000000E+00  0.00000000E+00  0.00000000E+00
  0.00000000E+00  0.00000000E+00  0.00000000E+00
  0.00000000E+00  0.00000000E+00  0.00000000E+00
  0.00000000E+00  0.00000000E+00  0.00000000E+00
  0.00000000E+00  0.00000000E+00  0.00000000E+00
  0.00000000E+00  0.00000000E+00  0.00000000E+00
  0.00000000E+00  0.00000000E+00  0.00000000E+00
  0.00000000E+00  0.00000000E+00  0.00000000E+00
  0.00000000E+00  0.00000000E+00  0.00000000E+00
  0.00000000E+00  0.00000000E+00  0.00000000E+00
