Graphene-Borophene Hollow 1 with lattice
   1.00000000000000     
     4.3110744600389355    2.4889999999999999    0.0000000000000000
    -4.3110744600389355    2.4889999999999999    0.0000000000000000
     0.0000000000000000    0.0000000000000000   15.0000000000000000
   B    C 
     8     8
Direct
  0.6698222376259877 -0.0001122776039449  0.1596540604323029
  0.3303219332360743 -0.0000119166603497  0.1597703119472639
  0.0001122776039449  0.3301767623740147  0.1596540604323029
  0.0000119166603497  0.6696770667639281  0.1597703119472639
  0.3304035302183477  0.3304338164717416  0.1598299778408558
  0.6695651835282608  0.6695954697816551  0.1598299778408558
  0.6666515213696568  0.3333474786303458  0.1564230593019962
  0.3332926742227341  0.6667063257772685  0.1740389201731012
  0.2810906797470422  0.2251180430150786  0.4089794000528632
  0.4457915723057830  0.0540954885128823  0.4079761556978623
  0.2778113280202454  0.7221876719797572  0.4072388612007102
  0.4437361466307211  0.5562628533692816  0.4083211342684769
  0.7755107602426152  0.2244882397573872  0.4086937429424840
  0.9439756590051247  0.0560233409948779  0.4096644701709450
  0.7748809569849240  0.7189083202529600  0.4089794000528632
  0.9459035114871203  0.5542074276942195  0.4079761556978623
 
  0.00000000E+00  0.00000000E+00  0.00000000E+00
  0.00000000E+00  0.00000000E+00  0.00000000E+00
  0.00000000E+00  0.00000000E+00  0.00000000E+00
  0.00000000E+00  0.00000000E+00  0.00000000E+00
  0.00000000E+00  0.00000000E+00  0.00000000E+00
  0.00000000E+00  0.00000000E+00  0.00000000E+00
  0.00000000E+00  0.00000000E+00  0.00000000E+00
  0.00000000E+00  0.00000000E+00  0.00000000E+00
  0.00000000E+00  0.00000000E+00  0.00000000E+00
  0.00000000E+00  0.00000000E+00  0.00000000E+00
  0.00000000E+00  0.00000000E+00  0.00000000E+00
  0.00000000E+00  0.00000000E+00  0.00000000E+00
  0.00000000E+00  0.00000000E+00  0.00000000E+00
  0.00000000E+00  0.00000000E+00  0.00000000E+00
  0.00000000E+00  0.00000000E+00  0.00000000E+00
  0.00000000E+00  0.00000000E+00  0.00000000E+00
