Graphene-Borophene Hollow 1 with lattice
   1.00000000000000     
     4.3110744600389355    2.4889999999999999    0.0000000000000000
    -4.3110744600389355    2.4889999999999999    0.0000000000000000
     0.0000000000000000    0.0000000000000000   15.0000000000000000
   B    C 
     8     8
Direct
  0.6697974760255531 -0.0000085053579852  0.1095673793180722
  0.3302447511223052  0.0000137063180498  0.1095862833354354
  0.0000085053579852  0.3302015239744493  0.1095673793180722
 -0.0000137063180498  0.6697542488776972  0.1095862833354354
  0.3302616387816810  0.3302569712559233  0.1095960863037082
  0.6697420287440791  0.6697373612183216  0.1095960863037082
  0.6666591465136571  0.3333398534863454  0.1084087434545605
  0.3333267103180510  0.6666722896819516  0.1125436350487551
  0.2790225458589634  0.2236444552132118  0.4598806920724706
  0.4452244351837750  0.0547464153618523  0.4597059082299902
  0.2776045176141184  0.7223944823858842  0.4595765002812330
  0.4443375485916553  0.5556614514083474  0.4597668749115789
  0.7766279824514283  0.2233710175485742  0.4598307341208591
  0.9444311792187884  0.0555678207812141  0.4600008136636703
  0.7763545447867909  0.7209764541410389  0.4598806920724706
  0.9452525846381503  0.5547745648162276  0.4597059082299902
 
  0.00000000E+00  0.00000000E+00  0.00000000E+00
  0.00000000E+00  0.00000000E+00  0.00000000E+00
  0.00000000E+00  0.00000000E+00  0.00000000E+00
  0.00000000E+00  0.00000000E+00  0.00000000E+00
  0.00000000E+00  0.00000000E+00  0.00000000E+00
  0.00000000E+00  0.00000000E+00  0.00000000E+00
  0.00000000E+00  0.00000000E+00  0.00000000E+00
  0.00000000E+00  0.00000000E+00  0.00000000E+00
  0.00000000E+00  0.00000000E+00  0.00000000E+00
  0.00000000E+00  0.00000000E+00  0.00000000E+00
  0.00000000E+00  0.00000000E+00  0.00000000E+00
  0.00000000E+00  0.00000000E+00  0.00000000E+00
  0.00000000E+00  0.00000000E+00  0.00000000E+00
  0.00000000E+00  0.00000000E+00  0.00000000E+00
  0.00000000E+00  0.00000000E+00  0.00000000E+00
  0.00000000E+00  0.00000000E+00  0.00000000E+00
