Graphene-Borophene Hollow 1 with lattice
   1.00000000000000     
     4.3110744600389355    2.4889999999999999    0.0000000000000000
    -4.3110744600389355    2.4889999999999999    0.0000000000000000
     0.0000000000000000    0.0000000000000000   15.0000000000000000
   B    C 
     8     8
Direct
  0.6715247835253646 -0.0027854731696689  0.1676420642099115
  0.3338065489914493 -0.0026496781738599  0.1675109966001448
  0.0027854731696689  0.3284742164746382  0.1676420642099115
  0.0026496781738599  0.6661924510085534  0.1675109966001448
  0.3336007858010924  0.3283683349441498  0.1669879814052075
  0.6716306650558537  0.6663982141989110  0.1669879814052075
  0.6690648000226684  0.3309341999773337  0.1565036678141473
  0.3357329841162356  0.6642660158837672  0.1785347542466009
  0.2753369135079767  0.2249209208765135  0.4021386294478481
  0.4418455377773959  0.0581611271400074  0.4022508020381243
  0.2751912691220134  0.7248077308779894  0.4022568428625506
  0.4418383580219437  0.5581606419780605  0.4023025424513930
  0.7751355530659997  0.2248634469340026  0.4021470790575434
  0.9418225865539268  0.0581764134460756  0.4019941661653026
  0.7750780791234894  0.7246620864920258  0.4021386294478481
  0.9418378728599952  0.5581534622226064  0.4022508020381243
 
  0.00000000E+00  0.00000000E+00  0.00000000E+00
  0.00000000E+00  0.00000000E+00  0.00000000E+00
  0.00000000E+00  0.00000000E+00  0.00000000E+00
  0.00000000E+00  0.00000000E+00  0.00000000E+00
  0.00000000E+00  0.00000000E+00  0.00000000E+00
  0.00000000E+00  0.00000000E+00  0.00000000E+00
  0.00000000E+00  0.00000000E+00  0.00000000E+00
  0.00000000E+00  0.00000000E+00  0.00000000E+00
  0.00000000E+00  0.00000000E+00  0.00000000E+00
  0.00000000E+00  0.00000000E+00  0.00000000E+00
  0.00000000E+00  0.00000000E+00  0.00000000E+00
  0.00000000E+00  0.00000000E+00  0.00000000E+00
  0.00000000E+00  0.00000000E+00  0.00000000E+00
  0.00000000E+00  0.00000000E+00  0.00000000E+00
  0.00000000E+00  0.00000000E+00  0.00000000E+00
  0.00000000E+00  0.00000000E+00  0.00000000E+00
