Graphene-B4C3 Top with lattice parameter
   1.00000000000000     
     4.2218738434491385    2.4375000000000000    0.0000000000000000
    -4.2218738434491385    2.4375000000000000    0.0000000000000000
     0.0000000000000000    0.0000000000000000   15.0000000000000000
   B    C 
     4    11
Direct
  0.0040567435308610  0.0026969213826611  0.1008245895608884
  0.3592378262820251  0.0030200284536202  0.1003691182811903
  0.0037279539807866  0.3575499734881268  0.1003698048861844
  0.6491961017573890  0.6475137624231218  0.1003664226227571
  0.3275237291003949  0.3258502505879499  0.1003485442271191
  0.6808953123573572  0.0030078140765547  0.1003496740165262
  0.0037373942819987  0.6792173153453793  0.1003470308673483
  0.0001335318214077  0.5000622105020581  0.3350705315919497
  0.1667818607622021  0.3334524419362626  0.3351040435959848
  0.0001154221155249  0.0000715624959083  0.3350350938710226
  0.1668270494126052  0.8334050922112846  0.3351078508984465
  0.5001271790665504  0.5001026131799194  0.3350731710642714
  0.6667811941788023  0.3334064223253620  0.3349736039855337
  0.5000852349731635  0.0000532406455971  0.3350689780419763
  0.6667341330456239  0.8333576842795184  0.3351042091554837
 
  0.00000000E+00  0.00000000E+00  0.00000000E+00
  0.00000000E+00  0.00000000E+00  0.00000000E+00
  0.00000000E+00  0.00000000E+00  0.00000000E+00
  0.00000000E+00  0.00000000E+00  0.00000000E+00
  0.00000000E+00  0.00000000E+00  0.00000000E+00
  0.00000000E+00  0.00000000E+00  0.00000000E+00
  0.00000000E+00  0.00000000E+00  0.00000000E+00
  0.00000000E+00  0.00000000E+00  0.00000000E+00
  0.00000000E+00  0.00000000E+00  0.00000000E+00
  0.00000000E+00  0.00000000E+00  0.00000000E+00
  0.00000000E+00  0.00000000E+00  0.00000000E+00
  0.00000000E+00  0.00000000E+00  0.00000000E+00
  0.00000000E+00  0.00000000E+00  0.00000000E+00
  0.00000000E+00  0.00000000E+00  0.00000000E+00
  0.00000000E+00  0.00000000E+00  0.00000000E+00
