Graphene-Borophene Hollow 1 with lattice
   1.00000000000000     
     4.3474475269978816    2.5099999999999998    0.0000000000000000
    -4.3474475269978816    2.5099999999999998    0.0000000000000000
     0.0000000000000000    0.0000000000000000   15.0000000000000000
   B    C 
     8     8
Direct
  0.6694829855396139 -0.0000115147491788  0.1615121182374306
  0.3308032476916051  0.0000842310980926  0.1616598742894307
  0.0000115147491788  0.3305160144603889  0.1615121182374307
 -0.0000842310980926  0.6691957523083975  0.1616598742894307
  0.3308856173477810  0.3307838241439469  0.1617265919014921
  0.6692151758560555  0.6691133826522215  0.1617265919014921
  0.6666327588273883  0.3333662411726143  0.1802304094280515
  0.3332856844877140  0.6667133155122885  0.1582169258236507
  0.2816032372798585  0.2256049748744020  0.4065775091767039
  0.4459923276296702  0.0537691020279652  0.4055614761327138
  0.2777668304766936  0.7222321695233090  0.4048192400631104
  0.4436162792432503  0.5563827207567521  0.4059063297827686
  0.7751045810860341  0.2248944189139683  0.4062893736002940
  0.9439419566745433  0.0560570433254594  0.4072625818265926
  0.7743940251256006  0.7183957627201439  0.4065775091767039
  0.9462298979720373  0.5540066723703322  0.4055614761327138
 
  0.00000000E+00  0.00000000E+00  0.00000000E+00
  0.00000000E+00  0.00000000E+00  0.00000000E+00
  0.00000000E+00  0.00000000E+00  0.00000000E+00
  0.00000000E+00  0.00000000E+00  0.00000000E+00
  0.00000000E+00  0.00000000E+00  0.00000000E+00
  0.00000000E+00  0.00000000E+00  0.00000000E+00
  0.00000000E+00  0.00000000E+00  0.00000000E+00
  0.00000000E+00  0.00000000E+00  0.00000000E+00
  0.00000000E+00  0.00000000E+00  0.00000000E+00
  0.00000000E+00  0.00000000E+00  0.00000000E+00
  0.00000000E+00  0.00000000E+00  0.00000000E+00
  0.00000000E+00  0.00000000E+00  0.00000000E+00
  0.00000000E+00  0.00000000E+00  0.00000000E+00
  0.00000000E+00  0.00000000E+00  0.00000000E+00
  0.00000000E+00  0.00000000E+00  0.00000000E+00
  0.00000000E+00  0.00000000E+00  0.00000000E+00
