Graphene-BC3 Bridge with lattice paramet
   1.00000000000000     
     4.3777584161303364    2.5274999999999999    0.0000000000000000
    -4.3777584161303364    2.5274999999999999    0.0000000000000000
     0.0000000000000000    0.0000000000000000   15.0000000000000000
   B    C 
     2    14
Direct
  0.3175950389834277  0.6912826450386894  0.1007543103537240
  0.6509225361648275  0.3579562355875447  0.1005616083562999
  0.1438624087691206  0.3437438214416580  0.1005392897986145
  0.3032783556875788  0.1841455098841988  0.1004241916741050
  0.1437854824133189  0.8650900993240572  0.1003343331650881
  0.8247290699546723  0.1841381689252799  0.1005939907530063
  0.6651301716283221  0.8650358076209921  0.1005090392504114
  0.8247191616271446  0.7055950229006681  0.1003948474611444
  0.2707453947986653  0.2278125425796606  0.3259191663611956
  0.4373663905084693  0.0612726936090626  0.3258469263072444
  0.2707375295781680  0.7278894774573585  0.3255543322481753
  0.4374499785834671  0.5611670842030561  0.3257964014611773
  0.7707503090493377  0.2278717487626357  0.3257800676430219
  0.9374266966437885  0.0611925526381256  0.3259042348096211
  0.7708145671624274  0.7278825246148598  0.3259155579491532
  0.9373455751139685  0.5612493987454773  0.3258383690746747
 
  0.00000000E+00  0.00000000E+00  0.00000000E+00
  0.00000000E+00  0.00000000E+00  0.00000000E+00
  0.00000000E+00  0.00000000E+00  0.00000000E+00
  0.00000000E+00  0.00000000E+00  0.00000000E+00
  0.00000000E+00  0.00000000E+00  0.00000000E+00
  0.00000000E+00  0.00000000E+00  0.00000000E+00
  0.00000000E+00  0.00000000E+00  0.00000000E+00
  0.00000000E+00  0.00000000E+00  0.00000000E+00
  0.00000000E+00  0.00000000E+00  0.00000000E+00
  0.00000000E+00  0.00000000E+00  0.00000000E+00
  0.00000000E+00  0.00000000E+00  0.00000000E+00
  0.00000000E+00  0.00000000E+00  0.00000000E+00
  0.00000000E+00  0.00000000E+00  0.00000000E+00
  0.00000000E+00  0.00000000E+00  0.00000000E+00
  0.00000000E+00  0.00000000E+00  0.00000000E+00
  0.00000000E+00  0.00000000E+00  0.00000000E+00
