Graphene-B4C3 Bridge with lattice parame
   1.00000000000000     
     4.1984911575469575    2.4239999999999995    0.0000000000000000
    -4.1984911575469575    2.4239999999999995    0.0000000000000000
     0.0000000000000000    0.0000000000000000   15.0000000000000000
   B    C 
     4    11
Direct
  0.0243735728633908 -0.0163759608173387  0.1025136983839903
  0.3796933016158356 -0.0163430516790481  0.1006691917920628
  0.0243580285401906  0.3384828484353415  0.1005295825573213
  0.6695626894491212  0.6282015571452583  0.1005470645008677
  0.3484173371235692  0.3069075313356935  0.1009552245079404
  0.7011643499191218 -0.0161430183558889  0.1002978420135280
  0.0239602763933931  0.6595018785239726  0.1008702920894596
  0.0654598693388165  0.4335430339254309  0.3374263819287900
  0.2322030669053875  0.2669159456218754  0.3373860498808057
  0.0655762272868085  0.9335961095667669  0.3373162676064572
  0.2323332763647626  0.7668985962945281  0.3373464192441800
  0.5656452909960218  0.4335744862520293  0.3373870437244281
  0.7322409930060186  0.2668944500365005  0.3373261425444419
  0.5655305162023748  0.9335896362372222  0.3375178541129996
  0.7321085373285088  0.7668566241443536  0.3372902784460639
 
  0.00000000E+00  0.00000000E+00  0.00000000E+00
  0.00000000E+00  0.00000000E+00  0.00000000E+00
  0.00000000E+00  0.00000000E+00  0.00000000E+00
  0.00000000E+00  0.00000000E+00  0.00000000E+00
  0.00000000E+00  0.00000000E+00  0.00000000E+00
  0.00000000E+00  0.00000000E+00  0.00000000E+00
  0.00000000E+00  0.00000000E+00  0.00000000E+00
  0.00000000E+00  0.00000000E+00  0.00000000E+00
  0.00000000E+00  0.00000000E+00  0.00000000E+00
  0.00000000E+00  0.00000000E+00  0.00000000E+00
  0.00000000E+00  0.00000000E+00  0.00000000E+00
  0.00000000E+00  0.00000000E+00  0.00000000E+00
  0.00000000E+00  0.00000000E+00  0.00000000E+00
  0.00000000E+00  0.00000000E+00  0.00000000E+00
  0.00000000E+00  0.00000000E+00  0.00000000E+00
