Graphene-Borophene Bridge with lattice p
   1.00000000000000     
     4.3647680350735678    2.5199999999999987    0.0000000000000000
    -4.3647680350735678    2.5199999999999987    0.0000000000000000
     0.0000000000000000    0.0000000000000000   15.0000000000000000
   B    C 
     8     8
Direct
  0.6725686539126789 -0.0038288245051637  0.1672412382238406
  0.3351705409532125 -0.0038288657389530  0.1674980442438736
  0.0038288245051637  0.3274303460873240  0.1672412382238406
  0.0038288657389530  0.6648284590467896  0.1674980442438737
  0.3349037958718664  0.3272923663614911  0.1674432936478949
  0.6727066336385117  0.6650952041281365  0.1674432936478949
  0.6701186736541773  0.3298803263458253  0.1645747957841917
  0.3369603259748930  0.6630386740251090  0.1698516786206689
  0.2462184045207940  0.2537491434994569  0.4016988909987266
  0.4129495910439982  0.0871412573083286  0.4017772469889607
  0.2462488366793238  0.7537501633206790  0.4017478410181929
  0.4129244169979198  0.5870745830020827  0.4017583750308986
  0.7462226248278681  0.2537763751721346  0.4017018550015223
  0.9129018791551241  0.0870971208448788  0.4015813596713038
  0.7462498565005454  0.7537805954792083  0.4016988909987266
  0.9128577426916742  0.5870494089560038  0.4017772469889607
 
  0.00000000E+00  0.00000000E+00  0.00000000E+00
  0.00000000E+00  0.00000000E+00  0.00000000E+00
  0.00000000E+00  0.00000000E+00  0.00000000E+00
  0.00000000E+00  0.00000000E+00  0.00000000E+00
  0.00000000E+00  0.00000000E+00  0.00000000E+00
  0.00000000E+00  0.00000000E+00  0.00000000E+00
  0.00000000E+00  0.00000000E+00  0.00000000E+00
  0.00000000E+00  0.00000000E+00  0.00000000E+00
  0.00000000E+00  0.00000000E+00  0.00000000E+00
  0.00000000E+00  0.00000000E+00  0.00000000E+00
  0.00000000E+00  0.00000000E+00  0.00000000E+00
  0.00000000E+00  0.00000000E+00  0.00000000E+00
  0.00000000E+00  0.00000000E+00  0.00000000E+00
  0.00000000E+00  0.00000000E+00  0.00000000E+00
  0.00000000E+00  0.00000000E+00  0.00000000E+00
  0.00000000E+00  0.00000000E+00  0.00000000E+00
