Graphene-B4C3 Bridge with lattice parame
   1.00000000000000     
     4.1967591067393899    2.4230000000000000    0.0000000000000000
    -4.1967591067393899    2.4230000000000000    0.0000000000000000
     0.0000000000000000    0.0000000000000000   15.0000000000000000
   B    C 
     4    11
Direct
  0.0360926088145702 -0.0279935277295785  0.1016293941065432
  0.3912792877292644 -0.0277709406730349  0.1007985345293870
  0.0358733261567003  0.3269365704799326  0.1008469355315768
  0.6812197525382754  0.6168088143877772  0.1008388331572127
  0.3598756672180257  0.2954575832289804  0.1008290044034010
  0.7126685866235952 -0.0277581524209783  0.1008657879076542
  0.0359011905521887  0.6482839990977937  0.1008557635404385
  0.0554081081621750  0.4435976755597005  0.3355189692289181
  0.2220517094659776  0.2769575207935228  0.3356031038384835
  0.0553947691279451  0.9436185016373542  0.3355051260506116
  0.2220985598928736  0.7769468556882659  0.3355697924413225
  0.5553787337986789  0.4436204515303347  0.3355418997871494
  0.7220397695630274  0.2769341429319045  0.3354522349891491
  0.5553416812974239  0.9435691233586277  0.3355672084450686
  0.7220035823926039  0.7768920487960933  0.3355567453763968
 
  0.00000000E+00  0.00000000E+00  0.00000000E+00
  0.00000000E+00  0.00000000E+00  0.00000000E+00
  0.00000000E+00  0.00000000E+00  0.00000000E+00
  0.00000000E+00  0.00000000E+00  0.00000000E+00
  0.00000000E+00  0.00000000E+00  0.00000000E+00
  0.00000000E+00  0.00000000E+00  0.00000000E+00
  0.00000000E+00  0.00000000E+00  0.00000000E+00
  0.00000000E+00  0.00000000E+00  0.00000000E+00
  0.00000000E+00  0.00000000E+00  0.00000000E+00
  0.00000000E+00  0.00000000E+00  0.00000000E+00
  0.00000000E+00  0.00000000E+00  0.00000000E+00
  0.00000000E+00  0.00000000E+00  0.00000000E+00
  0.00000000E+00  0.00000000E+00  0.00000000E+00
  0.00000000E+00  0.00000000E+00  0.00000000E+00
  0.00000000E+00  0.00000000E+00  0.00000000E+00
