Graphene-BC3 Hollow with lattice paramet
   1.00000000000000     
     4.3708302129000609    2.5234999999999999    0.0000000000000000
    -4.3708302129000609    2.5234999999999999    0.0000000000000000
     0.0000000000000000    0.0000000000000000   15.0000000000000000
   B    C 
     2    14
Direct
  0.3382715229628465  0.6691342637663961  0.1004378771673195
  0.6716062056446862  0.3358013164892741  0.1001139473752442
  0.1645408680275284  0.3216756403533769  0.1001235687200169
  0.3240685160792096  0.1620327294761042  0.1001302062101313
  0.1645397445251969  0.8428636085401272  0.1001236696101215
  0.8453695027531796  0.1620316994440271  0.1001205703829716
  0.6857235637108987  0.8428608151435373  0.1001140593391066
  0.8453702308601957  0.6833364430826562  0.1001205561794275
  0.3334147890945326  0.1667078580494376  0.3254236130441364
  0.5001027490002170  0.0001177620251237  0.3254005072291568
  0.3333944932320898  0.6666976814955665  0.3251180807981837
  0.5001028131855683  0.4999863036451720  0.3254005237403282
  0.8333889326123517  0.1667095742655266  0.3254190258451091
  0.0000642863645918  0.0000328331690736  0.3254004265844663
  0.8333889720665359  0.6666803815985567  0.3254190134427850
  0.9999781432137053  0.4999897561227400  0.3254010209981674
 
  0.00000000E+00  0.00000000E+00  0.00000000E+00
  0.00000000E+00  0.00000000E+00  0.00000000E+00
  0.00000000E+00  0.00000000E+00  0.00000000E+00
  0.00000000E+00  0.00000000E+00  0.00000000E+00
  0.00000000E+00  0.00000000E+00  0.00000000E+00
  0.00000000E+00  0.00000000E+00  0.00000000E+00
  0.00000000E+00  0.00000000E+00  0.00000000E+00
  0.00000000E+00  0.00000000E+00  0.00000000E+00
  0.00000000E+00  0.00000000E+00  0.00000000E+00
  0.00000000E+00  0.00000000E+00  0.00000000E+00
  0.00000000E+00  0.00000000E+00  0.00000000E+00
  0.00000000E+00  0.00000000E+00  0.00000000E+00
  0.00000000E+00  0.00000000E+00  0.00000000E+00
  0.00000000E+00  0.00000000E+00  0.00000000E+00
  0.00000000E+00  0.00000000E+00  0.00000000E+00
  0.00000000E+00  0.00000000E+00  0.00000000E+00
