Graphene-Borophene Hollow 1 with lattice
   1.00000000000000     
     4.2781654946951262    2.4699999999999998    0.0000000000000000
    -4.2781654946951262    2.4699999999999998    0.0000000000000000
     0.0000000000000000    0.0000000000000000   15.0000000000000000
   B    C 
     8     8
Direct
  0.6704545417174682 -0.0014957686241976  0.1652492026993704
  0.3327272692754236 -0.0015120060674319  0.1661509688982684
  0.0014957686241976  0.3295444582825343  0.1652492026993704
  0.0015120060674319  0.6672717307245797  0.1661509688982684
  0.3321897014382968  0.3294102618163995  0.1679501307778059
  0.6705887381836021  0.6678092985617051  0.1679501307778059
  0.6678056515305840  0.3321933484694186  0.1800418934380659
  0.3345356342001253  0.6654633657998784  0.1520398275231691
  0.2763532264951821  0.2236220485651193  0.4032540695722599
  0.4430100953875884  0.0569893451745536  0.4032786757351960
  0.2763816316367455  0.7236173683632571  0.4030977688947463
  0.4430509036979184  0.5569480963020844  0.4032537479440174
  0.7763753041109239  0.2236236958890782  0.4033872948425523
  0.9430148102631106  0.0569841897368916  0.4032133719916584
  0.7763769514348828  0.7236457735048210  0.4032540695722599
  0.9430096548254485  0.5569889046124138  0.4032786757351960
 
  0.00000000E+00  0.00000000E+00  0.00000000E+00
  0.00000000E+00  0.00000000E+00  0.00000000E+00
  0.00000000E+00  0.00000000E+00  0.00000000E+00
  0.00000000E+00  0.00000000E+00  0.00000000E+00
  0.00000000E+00  0.00000000E+00  0.00000000E+00
  0.00000000E+00  0.00000000E+00  0.00000000E+00
  0.00000000E+00  0.00000000E+00  0.00000000E+00
  0.00000000E+00  0.00000000E+00  0.00000000E+00
  0.00000000E+00  0.00000000E+00  0.00000000E+00
  0.00000000E+00  0.00000000E+00  0.00000000E+00
  0.00000000E+00  0.00000000E+00  0.00000000E+00
  0.00000000E+00  0.00000000E+00  0.00000000E+00
  0.00000000E+00  0.00000000E+00  0.00000000E+00
  0.00000000E+00  0.00000000E+00  0.00000000E+00
  0.00000000E+00  0.00000000E+00  0.00000000E+00
  0.00000000E+00  0.00000000E+00  0.00000000E+00
