Graphene-B4C3 Hollow 2 with lattice para
   1.00000000000000     
     4.1655821922031491    2.4049999999999998    0.0000000000000000
    -4.1655821922031491    2.4049999999999998    0.0000000000000000
     0.0000000000000000    0.0000000000000000   15.0000000000000000
   B    C 
     4    11
Direct
  0.0044969848246421  0.0029853785446027  0.0981285555701674
  0.3596000671387787  0.0029874545789197  0.1017495920782532
  0.0045034041393123  0.3580861724465895  0.1017519681441158
  0.6493952365657266  0.6478793857170043  0.1017562890960326
  0.3284730398587873  0.3269573874337993  0.1012598341056488
  0.6805279061639923  0.0029879636580478  0.1012541873167560
  0.0045038935542652  0.6790118125004353  0.1012534195526306
  0.1663716712790014  0.3331459940284305  0.3380379486532386
  0.3330527586186862  0.1664636148605797  0.3380398742209605
  0.1664081541049278  0.8331715794928423  0.3380422987564874
  0.3330558551012304  0.6664840720692914  0.3379282373100829
  0.6663898349008101  0.3331487885567999  0.3379282364193305
  0.8330776065627730  0.1665008331364184  0.3380417048413227
  0.6663943132591965  0.8331357585671935  0.3380375840460215
  0.8330432739278781  0.6664878044090562  0.3380362698889787
 
  0.00000000E+00  0.00000000E+00  0.00000000E+00
  0.00000000E+00  0.00000000E+00  0.00000000E+00
  0.00000000E+00  0.00000000E+00  0.00000000E+00
  0.00000000E+00  0.00000000E+00  0.00000000E+00
  0.00000000E+00  0.00000000E+00  0.00000000E+00
  0.00000000E+00  0.00000000E+00  0.00000000E+00
  0.00000000E+00  0.00000000E+00  0.00000000E+00
  0.00000000E+00  0.00000000E+00  0.00000000E+00
  0.00000000E+00  0.00000000E+00  0.00000000E+00
  0.00000000E+00  0.00000000E+00  0.00000000E+00
  0.00000000E+00  0.00000000E+00  0.00000000E+00
  0.00000000E+00  0.00000000E+00  0.00000000E+00
  0.00000000E+00  0.00000000E+00  0.00000000E+00
  0.00000000E+00  0.00000000E+00  0.00000000E+00
  0.00000000E+00  0.00000000E+00  0.00000000E+00
