Graphene-B4C3 Hollow 2 with lattice para
   1.00000000000000     
     4.1655821922031491    2.4049999999999998    0.0000000000000000
    -4.1655821922031491    2.4049999999999998    0.0000000000000000
     0.0000000000000000    0.0000000000000000   15.0000000000000000
   B    C 
     4    11
Direct
  0.0042126492322737  0.0028467418794605  0.1090759542450749
  0.3583185915756325  0.0027183520582294  0.0998694427214769
  0.0042231688870831  0.3570142047318531  0.0998693099410622
  0.6501598952195033  0.6486530169941250  0.0999067852071141
  0.3283571555815092  0.3269284294104068  0.1008791031275965
  0.6800917712978487  0.0026782805636571  0.1009334298001390
  0.0041373503773818  0.6787355019444322  0.1009452838803674
  0.1667476451050483  0.3336156444387749  0.3375602501383598
  0.3336144799520833  0.1667689432706891  0.3375636326769406
  0.1667729585239320  0.8331671790811869  0.3375681127119725
  0.3333374248778977  0.6666661204023419  0.3371951585648518
  0.6666564552284270  0.3333274583223214  0.3371952444832551
  0.8331565591325005  0.1667742132754560  0.3375670924076268
  0.6663473095832700  0.8331816789809446  0.3375597618668923
  0.8331605854256159  0.6663582346461318  0.3375574382272971
 
  0.00000000E+00  0.00000000E+00  0.00000000E+00
  0.00000000E+00  0.00000000E+00  0.00000000E+00
  0.00000000E+00  0.00000000E+00  0.00000000E+00
  0.00000000E+00  0.00000000E+00  0.00000000E+00
  0.00000000E+00  0.00000000E+00  0.00000000E+00
  0.00000000E+00  0.00000000E+00  0.00000000E+00
  0.00000000E+00  0.00000000E+00  0.00000000E+00
  0.00000000E+00  0.00000000E+00  0.00000000E+00
  0.00000000E+00  0.00000000E+00  0.00000000E+00
  0.00000000E+00  0.00000000E+00  0.00000000E+00
  0.00000000E+00  0.00000000E+00  0.00000000E+00
  0.00000000E+00  0.00000000E+00  0.00000000E+00
  0.00000000E+00  0.00000000E+00  0.00000000E+00
  0.00000000E+00  0.00000000E+00  0.00000000E+00
  0.00000000E+00  0.00000000E+00  0.00000000E+00
