Graphene-B4C3 Hollow 2 with lattice para
   1.00000000000000     
     4.1655821922031482    2.4049999999999994    0.0000000000000000
    -4.1655821922031482    2.4049999999999994    0.0000000000000000
     0.0000000000000000    0.0000000000000000   15.0000000000000000
   B    C 
     4    11
Direct
  0.0046187420795069  0.0030668501129985  0.0951907581065031
  0.3594258830976459  0.0030792830424810  0.1026053483315191
  0.0046381498124986  0.3578868212182829  0.1026078735368802
  0.6498058840334401  0.6482465899054384  0.1025945242620668
  0.3284428574134649  0.3268943581229066  0.1016474223924687
  0.6808003421348705  0.0030582010886409  0.1016565228963165
  0.0045918764853410  0.6792372544943425  0.1016594915299766
  0.1662596630748229  0.3330736072303233  0.3379315963984776
  0.3329491736713805  0.1663831065441450  0.3379334329340857
  0.1663116355849214  0.8331082192935144  0.3379383573616567
  0.3329539138543260  0.6664125109938750  0.3378371734212134
  0.6662873163724959  0.3330775891403198  0.3378375193306671
  0.8329828029448814  0.1664351572184195  0.3379374300372709
  0.6662929378729520  0.8330569321644988  0.3379351519000839
  0.8329328215674605  0.6664175194298239  0.3379333975608405
 
  0.00000000E+00  0.00000000E+00  0.00000000E+00
  0.00000000E+00  0.00000000E+00  0.00000000E+00
  0.00000000E+00  0.00000000E+00  0.00000000E+00
  0.00000000E+00  0.00000000E+00  0.00000000E+00
  0.00000000E+00  0.00000000E+00  0.00000000E+00
  0.00000000E+00  0.00000000E+00  0.00000000E+00
  0.00000000E+00  0.00000000E+00  0.00000000E+00
  0.00000000E+00  0.00000000E+00  0.00000000E+00
  0.00000000E+00  0.00000000E+00  0.00000000E+00
  0.00000000E+00  0.00000000E+00  0.00000000E+00
  0.00000000E+00  0.00000000E+00  0.00000000E+00
  0.00000000E+00  0.00000000E+00  0.00000000E+00
  0.00000000E+00  0.00000000E+00  0.00000000E+00
  0.00000000E+00  0.00000000E+00  0.00000000E+00
  0.00000000E+00  0.00000000E+00  0.00000000E+00
