Graphene-BC3 Hollow with lattice paramet
   1.00000000000000     
     4.3621699588622169    2.5185000000000000    0.0000000000000000
    -4.3621699588622169    2.5185000000000000    0.0000000000000000
     0.0000000000000000    0.0000000000000000   15.0000000000000000
   B    C 
     2    14
Direct
  0.3382445158784035  0.6691203014206291  0.1004924828780928
  0.6715798307376519  0.3357880699470802  0.1001808538045036
  0.1645760971876645  0.3217867189095543  0.1001890943482359
  0.3241702957223973  0.1620837692992990  0.1001993171643266
  0.1645765179418159  0.8427864923996824  0.1001892300379363
  0.8452788526372002  0.1620822091891038  0.1001869896538515
  0.6855709024116693  0.8427840064341130  0.1001769999266664
  0.8452789088243460  0.6831934497414923  0.1001870938088169
  0.3334404160628924  0.1667213342862602  0.3253594648976908
  0.5001285898171699  0.0001287980668790  0.3253362819352046
  0.3334210579282948  0.6667116406473235  0.3250520274711336
  0.5001285973656270  0.5000020273009189  0.3253362797811281
  0.8334157250280760  0.1667227876191640  0.3253546971393823
  0.0000911944251014  0.0000467206745523  0.3253342121754892
  0.8334157386872418  0.6666951860209771  0.3253547132506076
  0.0000080926777807  0.5000051547096669  0.3253369283936062
 
  0.00000000E+00  0.00000000E+00  0.00000000E+00
  0.00000000E+00  0.00000000E+00  0.00000000E+00
  0.00000000E+00  0.00000000E+00  0.00000000E+00
  0.00000000E+00  0.00000000E+00  0.00000000E+00
  0.00000000E+00  0.00000000E+00  0.00000000E+00
  0.00000000E+00  0.00000000E+00  0.00000000E+00
  0.00000000E+00  0.00000000E+00  0.00000000E+00
  0.00000000E+00  0.00000000E+00  0.00000000E+00
  0.00000000E+00  0.00000000E+00  0.00000000E+00
  0.00000000E+00  0.00000000E+00  0.00000000E+00
  0.00000000E+00  0.00000000E+00  0.00000000E+00
  0.00000000E+00  0.00000000E+00  0.00000000E+00
  0.00000000E+00  0.00000000E+00  0.00000000E+00
  0.00000000E+00  0.00000000E+00  0.00000000E+00
  0.00000000E+00  0.00000000E+00  0.00000000E+00
  0.00000000E+00  0.00000000E+00  0.00000000E+00
