Graphene-B4C3 Top with lattice parameter
   1.00000000000000     
     4.2036873099696637    2.4269999999999992    0.0000000000000000
    -4.2036873099696637    2.4269999999999992    0.0000000000000000
     0.0000000000000000    0.0000000000000000   15.0000000000000000
   B    C 
     4    11
Direct
  0.0040374228726845  0.0026871638153350  0.1009994103920196
  0.3592199769015680  0.0029706915616470  0.1004178860578983
  0.0037455128786775  0.3575794571699599  0.1004180064944940
  0.6491375292803863  0.6474999113161317  0.1004161647282586
  0.3276896782389456  0.3260511987340245  0.1004108764611912
  0.6806633644692986  0.0029690232910407  0.1004137519054268
  0.0037432451459342  0.6790222543635259  0.1004116284404493
  0.0001499962752336  0.5000717572713524  0.3350059155800915
  0.1667997498644806  0.3334620892340512  0.3350407635455932
  0.0001324012666557  0.0000810127215882  0.3349719123194979
  0.1668443685450300  0.8334145815465922  0.3350444493901990
  0.5001440212762445  0.5001114055577727  0.3350084351677281
  0.6667988072932818  0.3334159077145066  0.3349085145164061
  0.5001029234283442  0.0000634025058875  0.3350041849206766
  0.6667516689299288  0.8333674765299104  0.3350407667467519
 
  0.00000000E+00  0.00000000E+00  0.00000000E+00
  0.00000000E+00  0.00000000E+00  0.00000000E+00
  0.00000000E+00  0.00000000E+00  0.00000000E+00
  0.00000000E+00  0.00000000E+00  0.00000000E+00
  0.00000000E+00  0.00000000E+00  0.00000000E+00
  0.00000000E+00  0.00000000E+00  0.00000000E+00
  0.00000000E+00  0.00000000E+00  0.00000000E+00
  0.00000000E+00  0.00000000E+00  0.00000000E+00
  0.00000000E+00  0.00000000E+00  0.00000000E+00
  0.00000000E+00  0.00000000E+00  0.00000000E+00
  0.00000000E+00  0.00000000E+00  0.00000000E+00
  0.00000000E+00  0.00000000E+00  0.00000000E+00
  0.00000000E+00  0.00000000E+00  0.00000000E+00
  0.00000000E+00  0.00000000E+00  0.00000000E+00
  0.00000000E+00  0.00000000E+00  0.00000000E+00
