k-points 35
0
Gamma
35    35    1
0    0    0