Graphene-BC3 Bridge with lattice paramet
   1.00000000000000     
     4.3716962383038442    2.5239999999999991    0.0000000000000000
    -4.3716962383038442    2.5239999999999991    0.0000000000000000
     0.0000000000000000    0.0000000000000000   15.0000000000000000
   B    C 
     2    14
Direct
  0.3132772637943875  0.6959061854812654  0.1011746618841550
  0.6466857523973238  0.3625145820366245  0.1009970906938279
  0.1395866158291419  0.3484578863507484  0.1007026714310781
  0.2991310108127729  0.1888159886954650  0.1011827606662465
  0.1395225953238676  0.8696727075599091  0.1014070888788595
  0.8204191366849950  0.1887631122120863  0.1004942151870110
  0.6607181153367570  0.8695823028671411  0.1007112501235377
  0.8204012955857166  0.7100754160903394  0.1011948703324362
  0.2750484002037476  0.2232585698825203  0.3254175403794110
  0.4417012312345506  0.0566800517519992  0.3253919510269752
  0.2750062604296984  0.7233015484616219  0.3251184743824003
  0.4417306190267298  0.5565701970406338  0.3253461650291978
  0.7750310437098227  0.2232788986795765  0.3253255282734113
  0.9417245111953102  0.0565819787688264  0.3254008447010934
  0.7750468063932412  0.7232592876287436  0.3254145448514253
  0.9416280087086430  0.5566066198258243  0.3253870088255904
 
  0.00000000E+00  0.00000000E+00  0.00000000E+00
  0.00000000E+00  0.00000000E+00  0.00000000E+00
  0.00000000E+00  0.00000000E+00  0.00000000E+00
  0.00000000E+00  0.00000000E+00  0.00000000E+00
  0.00000000E+00  0.00000000E+00  0.00000000E+00
  0.00000000E+00  0.00000000E+00  0.00000000E+00
  0.00000000E+00  0.00000000E+00  0.00000000E+00
  0.00000000E+00  0.00000000E+00  0.00000000E+00
  0.00000000E+00  0.00000000E+00  0.00000000E+00
  0.00000000E+00  0.00000000E+00  0.00000000E+00
  0.00000000E+00  0.00000000E+00  0.00000000E+00
  0.00000000E+00  0.00000000E+00  0.00000000E+00
  0.00000000E+00  0.00000000E+00  0.00000000E+00
  0.00000000E+00  0.00000000E+00  0.00000000E+00
  0.00000000E+00  0.00000000E+00  0.00000000E+00
  0.00000000E+00  0.00000000E+00  0.00000000E+00
