Graphene-BC3 Bridge with lattice paramet
   1.00000000000000     
     4.3716962383038442    2.5239999999999991    0.0000000000000000
    -4.3716962383038442    2.5239999999999991    0.0000000000000000
     0.0000000000000000    0.0000000000000000   15.0000000000000000
   B    C 
     2    14
Direct
  0.3364411423370993  0.6711815217063427  0.0998500162580440
  0.6697768584966722  0.3378522661336851  0.0996079666362524
  0.1626524632317782  0.3237616629282934  0.0990873000714625
  0.3221859611608020  0.1641320007246524  0.1000306440226688
  0.1626057188442889  0.8449883070194650  0.1005797170347122
  0.8434747483193838  0.1641832626848194  0.0985569694637030
  0.6838664117809558  0.8450052568888142  0.0991296443438363
  0.8434671080013583  0.6854402238982005  0.1000700157139510
  0.2519078135450668  0.2478108178578664  0.3268549687757183
  0.4184883552204430  0.0812594077771505  0.3267327879533301
  0.2518910001268335  0.7479850967502734  0.3265651091147690
  0.4186267481357514  0.5812429067114034  0.3265903656964852
  0.7519464419848136  0.2479238460205111  0.3266080563161609
  0.9186562366133868  0.0812112504970484  0.3268268695998701
  0.7520626254945582  0.7479671371497961  0.3268532272805478
  0.9186090333735129  0.5813803685850014  0.3267230083851453
 
  0.00000000E+00  0.00000000E+00  0.00000000E+00
  0.00000000E+00  0.00000000E+00  0.00000000E+00
  0.00000000E+00  0.00000000E+00  0.00000000E+00
  0.00000000E+00  0.00000000E+00  0.00000000E+00
  0.00000000E+00  0.00000000E+00  0.00000000E+00
  0.00000000E+00  0.00000000E+00  0.00000000E+00
  0.00000000E+00  0.00000000E+00  0.00000000E+00
  0.00000000E+00  0.00000000E+00  0.00000000E+00
  0.00000000E+00  0.00000000E+00  0.00000000E+00
  0.00000000E+00  0.00000000E+00  0.00000000E+00
  0.00000000E+00  0.00000000E+00  0.00000000E+00
  0.00000000E+00  0.00000000E+00  0.00000000E+00
  0.00000000E+00  0.00000000E+00  0.00000000E+00
  0.00000000E+00  0.00000000E+00  0.00000000E+00
  0.00000000E+00  0.00000000E+00  0.00000000E+00
  0.00000000E+00  0.00000000E+00  0.00000000E+00
