Graphene-BC3 Bridge with lattice paramet
   1.00000000000000     
     4.3716962383038442    2.5239999999999991    0.0000000000000000
    -4.3716962383038442    2.5239999999999991    0.0000000000000000
     0.0000000000000000    0.0000000000000000   15.0000000000000000
   B    C 
     2    14
Direct
  0.3335849340438508  0.6742220090346939  0.0995243942969838
  0.6669116601474097  0.3409029531950802  0.0994077966203877
  0.1597323458707479  0.3267520089551724  0.0991356757428062
  0.3192962075152494  0.1671208487650103  0.0995545097371977
  0.1597445078728137  0.8480229335278957  0.0997674120911740
  0.8406201997190978  0.1672287969217241  0.0989192084979022
  0.6810744590330448  0.8480937949944718  0.0991474108848915
  0.8406911257356765  0.6885254397303466  0.0995666163002138
  0.2547379627922282  0.2447800377102740  0.3270574309614718
  0.4213585840476190  0.0781985098479316  0.3269854422410912
  0.2547286107006739  0.7449534069233890  0.3267472531843643
  0.4214985534078314  0.5781893553414444  0.3268915859296411
  0.7547623330766376  0.2449142741498359  0.3268520100264918
  0.9215306223374302  0.0781530360091019  0.3270791881279465
  0.7549013151031488  0.7449439028763382  0.3270552338773858
  0.9214852452632453  0.5783240253506136  0.3269754981467077
 
  0.00000000E+00  0.00000000E+00  0.00000000E+00
  0.00000000E+00  0.00000000E+00  0.00000000E+00
  0.00000000E+00  0.00000000E+00  0.00000000E+00
  0.00000000E+00  0.00000000E+00  0.00000000E+00
  0.00000000E+00  0.00000000E+00  0.00000000E+00
  0.00000000E+00  0.00000000E+00  0.00000000E+00
  0.00000000E+00  0.00000000E+00  0.00000000E+00
  0.00000000E+00  0.00000000E+00  0.00000000E+00
  0.00000000E+00  0.00000000E+00  0.00000000E+00
  0.00000000E+00  0.00000000E+00  0.00000000E+00
  0.00000000E+00  0.00000000E+00  0.00000000E+00
  0.00000000E+00  0.00000000E+00  0.00000000E+00
  0.00000000E+00  0.00000000E+00  0.00000000E+00
  0.00000000E+00  0.00000000E+00  0.00000000E+00
  0.00000000E+00  0.00000000E+00  0.00000000E+00
  0.00000000E+00  0.00000000E+00  0.00000000E+00
