Graphene-BC3 Hollow with lattice paramet
   1.00000000000000     
     4.3561077810357256    2.5149999999999997    0.0000000000000000
    -4.3561077810357256    2.5149999999999997    0.0000000000000000
     0.0000000000000000    0.0000000000000000   15.0000000000000000
   B    C 
     2    14
Direct
  0.3382376031813842  0.6691174007855061  0.1005161238430119
  0.6715733152913846  0.3357855742635795  0.1002012270500051
  0.1646148811238032  0.3218723848287449  0.1002160687301911
  0.3242533293494244  0.1621254545303596  0.1002268527346767
  0.1646149431905970  0.8427400808304712  0.1002161788971504
  0.8452279081364827  0.1621236526482737  0.1002112800776517
  0.6854770760439173  0.8427373025172097  0.1002008178812400
  0.8452277229901128  0.6831013482562812  0.1002114027260673
  0.3334450791638310  0.1667234090244714  0.3253333594340591
  0.5001343732611790  0.0001297042230177  0.3253120370409991
  0.3334265963626108  0.6667141712313934  0.3250276245465757
  0.5001343574325864  0.5000060385177048  0.3253120382119341
  0.8334218467069950  0.1667246202710564  0.3253286226985641
  0.0000979091537018  0.0000496180973757  0.3253118075557762
  0.8334218442034667  0.6666989548742120  0.3253286295319301
  0.0000165477418561  0.5000089517670375  0.3253125957068399
 
  0.00000000E+00  0.00000000E+00  0.00000000E+00
  0.00000000E+00  0.00000000E+00  0.00000000E+00
  0.00000000E+00  0.00000000E+00  0.00000000E+00
  0.00000000E+00  0.00000000E+00  0.00000000E+00
  0.00000000E+00  0.00000000E+00  0.00000000E+00
  0.00000000E+00  0.00000000E+00  0.00000000E+00
  0.00000000E+00  0.00000000E+00  0.00000000E+00
  0.00000000E+00  0.00000000E+00  0.00000000E+00
  0.00000000E+00  0.00000000E+00  0.00000000E+00
  0.00000000E+00  0.00000000E+00  0.00000000E+00
  0.00000000E+00  0.00000000E+00  0.00000000E+00
  0.00000000E+00  0.00000000E+00  0.00000000E+00
  0.00000000E+00  0.00000000E+00  0.00000000E+00
  0.00000000E+00  0.00000000E+00  0.00000000E+00
  0.00000000E+00  0.00000000E+00  0.00000000E+00
  0.00000000E+00  0.00000000E+00  0.00000000E+00
