Graphene-Borophene Top with lattice para
   1.00000000000000     
     4.2608449866194382    2.4600000000000000    0.0000000000000000
    -4.2608449866194382    2.4600000000000000    0.0000000000000000
     0.0000000000000000    0.0000000000000000   15.0000000000000000
   B    C 
     8     8
Direct
  0.6689937597200526  0.0000514944461485  0.1677922648451184
  0.3310567347260989  0.0000514944461485  0.1677922648451184
 -0.0000514944461485  0.3310052402799504  0.1677922648451184
 -0.0000514944461485  0.6689422652739041  0.1677922648451184
  0.3310567347260990  0.3310052402799504  0.1677922648451184
  0.6689937597200526  0.6689422652739041  0.1677922648451183
  0.6666659999999993  0.3333330000000032  0.1522668388817541
  0.3333330000000032  0.6666659999999993  0.1829107112877453
  0.1666499842073188  0.3333009684146421  0.4000608885181811
  0.3333260969174507  0.1666625484587231  0.3998979540023697
  0.1666499842073188  0.8333490157926841  0.4000608885181811
  0.3333330000000032  0.6666659999999993  0.4001909146842579
  0.6666659999999993  0.3333330000000032  0.3998680851805722
  0.8333364515412792  0.1666625484587231  0.3998979540023697
  0.6666980315853611  0.8333490157926841  0.4000608885181811
  0.8333364515412792  0.6666729030825514  0.3998979540023697
 
  0.00000000E+00  0.00000000E+00  0.00000000E+00
  0.00000000E+00  0.00000000E+00  0.00000000E+00
  0.00000000E+00  0.00000000E+00  0.00000000E+00
  0.00000000E+00  0.00000000E+00  0.00000000E+00
  0.00000000E+00  0.00000000E+00  0.00000000E+00
  0.00000000E+00  0.00000000E+00  0.00000000E+00
  0.00000000E+00  0.00000000E+00  0.00000000E+00
  0.00000000E+00  0.00000000E+00  0.00000000E+00
  0.00000000E+00  0.00000000E+00  0.00000000E+00
  0.00000000E+00  0.00000000E+00  0.00000000E+00
  0.00000000E+00  0.00000000E+00  0.00000000E+00
  0.00000000E+00  0.00000000E+00  0.00000000E+00
  0.00000000E+00  0.00000000E+00  0.00000000E+00
  0.00000000E+00  0.00000000E+00  0.00000000E+00
  0.00000000E+00  0.00000000E+00  0.00000000E+00
  0.00000000E+00  0.00000000E+00  0.00000000E+00
