Graphene-B4C3 Hollow 1 with lattice para
   1.00000000000000     
     4.1993571829507426    2.4245000000000001    0.0000000000000000
    -4.1993571829507426    2.4245000000000001    0.0000000000000000
     0.0000000000000000    0.0000000000000000   15.0000000000000000
   B    C 
     4    11
Direct
  0.0069711859393733  0.0002947882819909  0.0999235074661508
  0.3621074005292138  0.0003095521223393  0.1013080042673032
  0.0070226529364496  0.3553681240808088  0.1014165471252890
  0.6519678427557390  0.6451040929621549  0.1013782616494188
  0.3306396683884355  0.3238215495246280  0.1012324528539552
  0.6834300364596123  0.0002511557878899  0.1010814828323696
  0.0070651807409300  0.6766923623644292  0.1012489968234942
  0.1086001992172596  0.3910538941491324  0.3380083511524587
  0.2752196027370773  0.2243354195165824  0.3381144983910976
  0.1086440970933194  0.8911400428165833  0.3380800526993992
  0.2752872879047604  0.7244605312182563  0.3379330172710296
  0.6086481645624729  0.3910949093609974  0.3379724979006780
  0.7753247849054515  0.2244728375340466  0.3379749627979184
  0.6086296401480539  0.8910200384560032  0.3381077775679255
  0.7752918112374004  0.7244591462686258  0.3379989225348333
 
  0.00000000E+00  0.00000000E+00  0.00000000E+00
  0.00000000E+00  0.00000000E+00  0.00000000E+00
  0.00000000E+00  0.00000000E+00  0.00000000E+00
  0.00000000E+00  0.00000000E+00  0.00000000E+00
  0.00000000E+00  0.00000000E+00  0.00000000E+00
  0.00000000E+00  0.00000000E+00  0.00000000E+00
  0.00000000E+00  0.00000000E+00  0.00000000E+00
  0.00000000E+00  0.00000000E+00  0.00000000E+00
  0.00000000E+00  0.00000000E+00  0.00000000E+00
  0.00000000E+00  0.00000000E+00  0.00000000E+00
  0.00000000E+00  0.00000000E+00  0.00000000E+00
  0.00000000E+00  0.00000000E+00  0.00000000E+00
  0.00000000E+00  0.00000000E+00  0.00000000E+00
  0.00000000E+00  0.00000000E+00  0.00000000E+00
  0.00000000E+00  0.00000000E+00  0.00000000E+00
