Graphene-B4C3 Hollow 1 with lattice para
   1.00000000000000     
     4.1993571829507426    2.4245000000000001    0.0000000000000000
    -4.1993571829507426    2.4245000000000001    0.0000000000000000
     0.0000000000000000    0.0000000000000000   15.0000000000000000
   B    C 
     4    11
Direct
  0.0547899451616064 -0.0421737564181887  0.1027950778964250
  0.4097778539748539 -0.0419826085737151  0.0987768967466575
  0.0546104286307425  0.3126418123425649  0.0987353318624295
  0.7000348298828005  0.6028310449829903  0.0987277387930426
  0.3784936726799744  0.2813041324450158  0.0990641809745062
  0.7313461593949254 -0.0420201979084065  0.0991982355933371
  0.0545833567717757  0.6341261089587595  0.0990954805783502
  0.0668456439215578  0.4282240112303346  0.3394539093559816
  0.2334865844277212  0.2615963757289803  0.3394081793103352
  0.0668168085289498  0.9282232494708049  0.3393114614501227
  0.2335119023857129  0.7615627585371317  0.3394448328173157
  0.5668193619409664  0.4282481653301654  0.3394179082714045
  0.7334779612769438  0.2615545717371030  0.3394329453914903
  0.5668019506282986  0.9282114489192157  0.3395191685910051
  0.7334530959487191  0.7615313276617122  0.3393979857009184
 
  0.00000000E+00  0.00000000E+00  0.00000000E+00
  0.00000000E+00  0.00000000E+00  0.00000000E+00
  0.00000000E+00  0.00000000E+00  0.00000000E+00
  0.00000000E+00  0.00000000E+00  0.00000000E+00
  0.00000000E+00  0.00000000E+00  0.00000000E+00
  0.00000000E+00  0.00000000E+00  0.00000000E+00
  0.00000000E+00  0.00000000E+00  0.00000000E+00
  0.00000000E+00  0.00000000E+00  0.00000000E+00
  0.00000000E+00  0.00000000E+00  0.00000000E+00
  0.00000000E+00  0.00000000E+00  0.00000000E+00
  0.00000000E+00  0.00000000E+00  0.00000000E+00
  0.00000000E+00  0.00000000E+00  0.00000000E+00
  0.00000000E+00  0.00000000E+00  0.00000000E+00
  0.00000000E+00  0.00000000E+00  0.00000000E+00
  0.00000000E+00  0.00000000E+00  0.00000000E+00
