Graphene-BC3 Bridge with lattice paramet
   1.00000000000000     
     4.3041462568086599    2.4849999999999999    0.0000000000000000
    -4.3041462568086599    2.4849999999999999    0.0000000000000000
     0.0000000000000000    0.0000000000000000   15.0000000000000000
   B    C 
     2    14
Direct
  0.3265105575638260  0.6814085238862458  0.1000084193221932
  0.6597330119635241  0.3481893399742644  0.0997011733463002
  0.1532581485673764  0.3351032173037425  0.0949023228834971
  0.3132204936068074  0.1748832379542084  0.1041489377569255
  0.1531166874874462  0.8548049324751028  0.1088566723329830
  0.8330218766987570  0.1748713739577572  0.0902893700308984
  0.6728154126547725  0.8546912443874225  0.0951455561895282
  0.8330654614940174  0.6947152137619415  0.1043963516051998
  0.2618978847291935  0.2375861376294204  0.3267301746727956
  0.4284727180882830  0.0709895962450213  0.3267512395068946
  0.2618467324987697  0.7377266935207394  0.3265761102745882
  0.4286153258729283  0.5709566424475833  0.3265858333550053
  0.7618944958339071  0.2376725648772963  0.3264982306078400
  0.9286189795245509  0.0709504459563372  0.3266004071309134
  0.7619888229029144  0.7376775516609757  0.3267318098833015
  0.9285820571796332  0.5710986172952658  0.3267440577677926
 
  0.00000000E+00  0.00000000E+00  0.00000000E+00
  0.00000000E+00  0.00000000E+00  0.00000000E+00
  0.00000000E+00  0.00000000E+00  0.00000000E+00
  0.00000000E+00  0.00000000E+00  0.00000000E+00
  0.00000000E+00  0.00000000E+00  0.00000000E+00
  0.00000000E+00  0.00000000E+00  0.00000000E+00
  0.00000000E+00  0.00000000E+00  0.00000000E+00
  0.00000000E+00  0.00000000E+00  0.00000000E+00
  0.00000000E+00  0.00000000E+00  0.00000000E+00
  0.00000000E+00  0.00000000E+00  0.00000000E+00
  0.00000000E+00  0.00000000E+00  0.00000000E+00
  0.00000000E+00  0.00000000E+00  0.00000000E+00
  0.00000000E+00  0.00000000E+00  0.00000000E+00
  0.00000000E+00  0.00000000E+00  0.00000000E+00
  0.00000000E+00  0.00000000E+00  0.00000000E+00
  0.00000000E+00  0.00000000E+00  0.00000000E+00
