Graphene-Borophene Hollow 1 with lattice
   1.00000000000000     
     4.3067443330200126    2.4864999999999999    0.0000000000000000
    -4.3067443330200126    2.4864999999999999    0.0000000000000000
     0.0000000000000000    0.0000000000000000   15.0000000000000000
   B    C 
     8     8
Direct
  0.6730612677928470 -0.0042207237627466  0.1674900802525053
  0.3353902679373376 -0.0041339726843400  0.1674811698372589
  0.0042207237627466  0.3269377322071552  0.1674900802525053
  0.0041339726843400  0.6646087320626655  0.1674811698372589
  0.3350714043157968  0.3267985819390782  0.1670475694593615
  0.6732004180609247  0.6649275956842055  0.1670475694593614
  0.6704851437643712  0.3295138562356320  0.1559897687927723
  0.3372972697626705  0.6627017302373321  0.1790248966961490
  0.2737148804825561  0.2263098359654878  0.4021654736978983
  0.4402931997092842  0.0597175708490016  0.4022445596491888
  0.2736778236061062  0.7263211763938965  0.4022716511436782
  0.4403788656637140  0.5596201343362885  0.4023180276044674
  0.7736903759526594  0.2263086240473431  0.4021763737591283
  0.9402956822080625  0.0597033177919400  0.4021615762113896
  0.7736891640345147  0.7262841195174462  0.4021654736978983
  0.9402814291510007  0.5597058002907185  0.4022445596491888
 
  0.00000000E+00  0.00000000E+00  0.00000000E+00
  0.00000000E+00  0.00000000E+00  0.00000000E+00
  0.00000000E+00  0.00000000E+00  0.00000000E+00
  0.00000000E+00  0.00000000E+00  0.00000000E+00
  0.00000000E+00  0.00000000E+00  0.00000000E+00
  0.00000000E+00  0.00000000E+00  0.00000000E+00
  0.00000000E+00  0.00000000E+00  0.00000000E+00
  0.00000000E+00  0.00000000E+00  0.00000000E+00
  0.00000000E+00  0.00000000E+00  0.00000000E+00
  0.00000000E+00  0.00000000E+00  0.00000000E+00
  0.00000000E+00  0.00000000E+00  0.00000000E+00
  0.00000000E+00  0.00000000E+00  0.00000000E+00
  0.00000000E+00  0.00000000E+00  0.00000000E+00
  0.00000000E+00  0.00000000E+00  0.00000000E+00
  0.00000000E+00  0.00000000E+00  0.00000000E+00
  0.00000000E+00  0.00000000E+00  0.00000000E+00
