Graphene-BC3 Top with lattice parameter 
   1.00000000000000     
     4.3820885431492576    2.5299999999999989    0.0000000000000000
    -4.3820885431492576    2.5299999999999989    0.0000000000000000
     0.0000000000000000    0.0000000000000000   15.0000000000000000
   B    C 
     2    14
Direct
  0.3384054907738574  0.6692000650102853  0.1000553778376650
  0.6717391808395689  0.3358661756134129  0.1000553510404398
  0.1645938983286599  0.3215759259982437  0.0997288009883645
  0.3241150008292292  0.1620571033494372  0.0997207152403139
  0.1645942796938351  0.8430164091954983  0.0997287391024399
  0.8455567339624001  0.1620551766176784  0.0997453288369613
  0.6860401689431549  0.8430205808179195  0.0997533130028255
  0.8455554832355994  0.6835002264842439  0.0997450870081140
  0.1664923371732724  0.3330982471043913  0.3290589886793246
  0.3330596425183392  0.1665303573390397  0.3290600482637419
  0.1664923072385200  0.8333952237095488  0.3290589884006207
  0.3332562144098183  0.6666286425296263  0.3287602629613985
  0.6665895844302711  0.3332953361401751  0.3287602669342997
  0.8333566846686429  0.1665309842955251  0.3290566602760664
  0.6667882653116719  0.8333946861984904  0.3290554113985996
  0.8333567276431785  0.6668268595964935  0.3290566600288449
 
  0.00000000E+00  0.00000000E+00  0.00000000E+00
  0.00000000E+00  0.00000000E+00  0.00000000E+00
  0.00000000E+00  0.00000000E+00  0.00000000E+00
  0.00000000E+00  0.00000000E+00  0.00000000E+00
  0.00000000E+00  0.00000000E+00  0.00000000E+00
  0.00000000E+00  0.00000000E+00  0.00000000E+00
  0.00000000E+00  0.00000000E+00  0.00000000E+00
  0.00000000E+00  0.00000000E+00  0.00000000E+00
  0.00000000E+00  0.00000000E+00  0.00000000E+00
  0.00000000E+00  0.00000000E+00  0.00000000E+00
  0.00000000E+00  0.00000000E+00  0.00000000E+00
  0.00000000E+00  0.00000000E+00  0.00000000E+00
  0.00000000E+00  0.00000000E+00  0.00000000E+00
  0.00000000E+00  0.00000000E+00  0.00000000E+00
  0.00000000E+00  0.00000000E+00  0.00000000E+00
  0.00000000E+00  0.00000000E+00  0.00000000E+00
