Graphene-Borophene Bridge with lattice p
   1.00000000000000     
     4.3197347140767803    2.4940000000000002    0.0000000000000000
    -4.3197347140767803    2.4940000000000002    0.0000000000000000
     0.0000000000000000    0.0000000000000000   15.0000000000000000
   B    C 
     8     8
Direct
  0.6747072921339152 -0.0055064415638804  0.1671688514965317
  0.3360777895872279 -0.0054958561321691  0.1670215723028380
  0.0055064415638804  0.3252917078660876  0.1671688514965318
  0.0054958561321691  0.6639212104127750  0.1670215723028380
  0.3366541812861563  0.3255057503931329  0.1669374936794946
  0.6744932496068695  0.6633448187138458  0.1669374936794946
  0.6723789768845463  0.3276200231154564  0.1580374496434817
  0.3386534741581451  0.6613455258418577  0.1760533948121729
  0.2446185873445899  0.2556822516639154  0.4019713449580899
  0.4112786827453623  0.0887671254600794  0.4021712552819545
  0.2444431572545782  0.7555558427454241  0.4023378124344908
  0.4111516700514050  0.5888473299485972  0.4021311819101939
  0.7444919896446730  0.2555070103553302  0.4018255570356280
  0.9111596953971766  0.0888393046028260  0.4016069020595877
  0.7443167483360867  0.7553804126554128  0.4019713449580900
  0.9112318745399229  0.5887203172546406  0.4021712552819545
 
  0.00000000E+00  0.00000000E+00  0.00000000E+00
  0.00000000E+00  0.00000000E+00  0.00000000E+00
  0.00000000E+00  0.00000000E+00  0.00000000E+00
  0.00000000E+00  0.00000000E+00  0.00000000E+00
  0.00000000E+00  0.00000000E+00  0.00000000E+00
  0.00000000E+00  0.00000000E+00  0.00000000E+00
  0.00000000E+00  0.00000000E+00  0.00000000E+00
  0.00000000E+00  0.00000000E+00  0.00000000E+00
  0.00000000E+00  0.00000000E+00  0.00000000E+00
  0.00000000E+00  0.00000000E+00  0.00000000E+00
  0.00000000E+00  0.00000000E+00  0.00000000E+00
  0.00000000E+00  0.00000000E+00  0.00000000E+00
  0.00000000E+00  0.00000000E+00  0.00000000E+00
  0.00000000E+00  0.00000000E+00  0.00000000E+00
  0.00000000E+00  0.00000000E+00  0.00000000E+00
  0.00000000E+00  0.00000000E+00  0.00000000E+00
