Graphene-BC3 Bridge with lattice paramet
   1.00000000000000     
     4.3613039334584327    2.5179999999999998    0.0000000000000000
    -4.3613039334584327    2.5179999999999998    0.0000000000000000
     0.0000000000000000    0.0000000000000000   15.0000000000000000
   B    C 
     2    14
Direct
  0.3359628478748633  0.6716828092995635  0.0998976190376426
  0.6692858145533481  0.3383574500106155  0.0996919661233156
  0.1622468123249912  0.3244649768293084  0.0989500093214119
  0.3218674516909270  0.1647505107610494  0.1002413718032949
  0.1621890530393987  0.8454365124514925  0.1009569011298233
  0.8428898974070373  0.1647715855613730  0.0982725847844861
  0.6831836609139122  0.8454178615136992  0.0990063653097497
  0.8428800306883563  0.6857879565171378  0.1002959134914042
  0.2523890824603164  0.2473351728580726  0.3267848775570577
  0.4190267155463013  0.0807343111832441  0.3267071632630741
  0.2523712567258096  0.7474797258203596  0.3265357818650971
  0.4191452405419835  0.5807083436011128  0.3265458702500558
  0.7524256163459359  0.2474199508097669  0.3265409839590188
  0.9191625549720885  0.0806899166649582  0.3267562696203549
  0.7525132889891109  0.7474609557920178  0.3267845038098146
  0.9191193425923245  0.5808272936595521  0.3266984853410552
 
  0.00000000E+00  0.00000000E+00  0.00000000E+00
  0.00000000E+00  0.00000000E+00  0.00000000E+00
  0.00000000E+00  0.00000000E+00  0.00000000E+00
  0.00000000E+00  0.00000000E+00  0.00000000E+00
  0.00000000E+00  0.00000000E+00  0.00000000E+00
  0.00000000E+00  0.00000000E+00  0.00000000E+00
  0.00000000E+00  0.00000000E+00  0.00000000E+00
  0.00000000E+00  0.00000000E+00  0.00000000E+00
  0.00000000E+00  0.00000000E+00  0.00000000E+00
  0.00000000E+00  0.00000000E+00  0.00000000E+00
  0.00000000E+00  0.00000000E+00  0.00000000E+00
  0.00000000E+00  0.00000000E+00  0.00000000E+00
  0.00000000E+00  0.00000000E+00  0.00000000E+00
  0.00000000E+00  0.00000000E+00  0.00000000E+00
  0.00000000E+00  0.00000000E+00  0.00000000E+00
  0.00000000E+00  0.00000000E+00  0.00000000E+00
