Graphene-BC3 Bridge with lattice paramet
   1.00000000000000     
     4.3613039334584327    2.5179999999999998    0.0000000000000000
    -4.3613039334584327    2.5179999999999998    0.0000000000000000
     0.0000000000000000    0.0000000000000000   15.0000000000000000
   B    C 
     2    14
Direct
  0.3337436440036403  0.6740839537239909  0.0997096570469736
  0.6668855713779160  0.3408564012073755  0.0996787503008606
  0.1600438001116499  0.3269329398023941  0.0986907507736625
  0.3196542591267883  0.1672067656277437  0.1001424974401170
  0.1599390963980087  0.8478530420201228  0.1008918875816824
  0.8406267427867643  0.1671645091460965  0.0979885994850960
  0.6808240349297170  0.8477388761856064  0.0987440385562223
  0.8405843973246038  0.6881528903744452  0.1001993298377089
  0.2547194296983659  0.2449727520487453  0.3268834330851099
  0.4213260617560712  0.0783700483357032  0.3268437633767357
  0.2547023598868235  0.7450153580872828  0.3266709221192729
  0.4214175601644621  0.5782883843784832  0.3268212473025027
  0.7547581509368410  0.2449503565894743  0.3267758242824225
  0.9213490388075143  0.0783581788031965  0.3269072478560889
  0.7547462807332429  0.7449994212389147  0.3268815951238345
  0.9213382386242951  0.5783814557637483  0.3268371224983666
 
  0.00000000E+00  0.00000000E+00  0.00000000E+00
  0.00000000E+00  0.00000000E+00  0.00000000E+00
  0.00000000E+00  0.00000000E+00  0.00000000E+00
  0.00000000E+00  0.00000000E+00  0.00000000E+00
  0.00000000E+00  0.00000000E+00  0.00000000E+00
  0.00000000E+00  0.00000000E+00  0.00000000E+00
  0.00000000E+00  0.00000000E+00  0.00000000E+00
  0.00000000E+00  0.00000000E+00  0.00000000E+00
  0.00000000E+00  0.00000000E+00  0.00000000E+00
  0.00000000E+00  0.00000000E+00  0.00000000E+00
  0.00000000E+00  0.00000000E+00  0.00000000E+00
  0.00000000E+00  0.00000000E+00  0.00000000E+00
  0.00000000E+00  0.00000000E+00  0.00000000E+00
  0.00000000E+00  0.00000000E+00  0.00000000E+00
  0.00000000E+00  0.00000000E+00  0.00000000E+00
  0.00000000E+00  0.00000000E+00  0.00000000E+00
