Graphene-Borophene Top with lattice para
   1.00000000000000     
     4.2868257487329702    2.4749999999999996    0.0000000000000000
    -4.2868257487329702    2.4749999999999996    0.0000000000000000
     0.0000000000000000    0.0000000000000000   15.0000000000000000
   B    C 
     8     8
Direct
  0.6687980290130688  0.0000710645774815  0.1680589478040976
  0.3312720355644151  0.0000710645774815  0.1680589478040976
 -0.0000710645774815  0.3312009709869339  0.1680589478040976
 -0.0000710645774815  0.6687269644355870  0.1680589478040976
  0.3312720355644151  0.3312009709869339  0.1680589478040976
  0.6687980290130688  0.6687269644355870  0.1680589478040976
  0.6666659999999993  0.3333330000000032  0.1534773579722151
  0.3333330000000032  0.6666659999999993  0.1817742117649880
  0.1666459418273711  0.3332928836547469  0.3998378407197616
  0.3333135592288921  0.1666562796144437  0.3997075709586335
  0.1666459418273712  0.8333530581726316  0.3998378407197616
  0.3333330000000032  0.6666659999999993  0.3998828612185342
  0.6666659999999993  0.3333330000000032  0.3997423138511847
  0.8333427203855586  0.1666562796144437  0.3997075709586335
  0.6667061163452561  0.8333530581726316  0.3998378407197616
  0.8333427203855586  0.6666854407711106  0.3997075709586335
 
  0.00000000E+00  0.00000000E+00  0.00000000E+00
  0.00000000E+00  0.00000000E+00  0.00000000E+00
  0.00000000E+00  0.00000000E+00  0.00000000E+00
  0.00000000E+00  0.00000000E+00  0.00000000E+00
  0.00000000E+00  0.00000000E+00  0.00000000E+00
  0.00000000E+00  0.00000000E+00  0.00000000E+00
  0.00000000E+00  0.00000000E+00  0.00000000E+00
  0.00000000E+00  0.00000000E+00  0.00000000E+00
  0.00000000E+00  0.00000000E+00  0.00000000E+00
  0.00000000E+00  0.00000000E+00  0.00000000E+00
  0.00000000E+00  0.00000000E+00  0.00000000E+00
  0.00000000E+00  0.00000000E+00  0.00000000E+00
  0.00000000E+00  0.00000000E+00  0.00000000E+00
  0.00000000E+00  0.00000000E+00  0.00000000E+00
  0.00000000E+00  0.00000000E+00  0.00000000E+00
  0.00000000E+00  0.00000000E+00  0.00000000E+00
