Graphene-Borophene Top with lattice para
   1.00000000000000     
     4.3171366378654268    2.4925000000000002    0.0000000000000000
    -4.3171366378654268    2.4925000000000002    0.0000000000000000
     0.0000000000000000    0.0000000000000000   15.0000000000000000
   B    C 
     8     8
Direct
  0.6684869052829034  0.0000494046763914  0.1674192478556727
  0.3315614993934904  0.0000494046763914  0.1674192478556727
 -0.0000494046763914  0.3315120947170990  0.1674192478556727
 -0.0000494046763914  0.6684375006065119  0.1674192478556727
  0.3315614993934904  0.3315120947170989  0.1674192478556727
  0.6684869052829034  0.6684375006065119  0.1674192478556727
  0.6666659999999993  0.3333330000000032  0.1545318511248968
  0.3333330000000032  0.6666659999999993  0.1799415867230645
  0.1666535460500969  0.3333080921001983  0.4004093399629953
  0.3333395872750598  0.1666692936375276  0.4002986714469897
  0.1666535460500969  0.8333454539499061  0.4004093399629953
  0.3333330000000032  0.6666659999999993  0.4004887250353773
  0.6666659999999993  0.3333330000000032  0.4002649824193631
  0.8333297063624752  0.1666692936375276  0.4002986714469897
  0.6666909078998047  0.8333454539499061  0.4004093399629953
  0.8333297063624752  0.6666594127249431  0.4002986714469897
 
  0.00000000E+00  0.00000000E+00  0.00000000E+00
  0.00000000E+00  0.00000000E+00  0.00000000E+00
  0.00000000E+00  0.00000000E+00  0.00000000E+00
  0.00000000E+00  0.00000000E+00  0.00000000E+00
  0.00000000E+00  0.00000000E+00  0.00000000E+00
  0.00000000E+00  0.00000000E+00  0.00000000E+00
  0.00000000E+00  0.00000000E+00  0.00000000E+00
  0.00000000E+00  0.00000000E+00  0.00000000E+00
  0.00000000E+00  0.00000000E+00  0.00000000E+00
  0.00000000E+00  0.00000000E+00  0.00000000E+00
  0.00000000E+00  0.00000000E+00  0.00000000E+00
  0.00000000E+00  0.00000000E+00  0.00000000E+00
  0.00000000E+00  0.00000000E+00  0.00000000E+00
  0.00000000E+00  0.00000000E+00  0.00000000E+00
  0.00000000E+00  0.00000000E+00  0.00000000E+00
  0.00000000E+00  0.00000000E+00  0.00000000E+00
