Graphene-B4C3 Bridge with lattice parame
   1.00000000000000     
     4.2019552591620952    2.4259999999999993    0.0000000000000000
    -4.2019552591620952    2.4259999999999993    0.0000000000000000
     0.0000000000000000    0.0000000000000000   15.0000000000000000
   B    C 
     4    11
Direct
  0.0041470847798116  0.0026958413843762  0.1186287692359934
  0.3567890133525081  0.0028102618971020  0.0979660781781763
  0.0041573454021906  0.3554104785413186  0.0980556695790784
  0.6516484001258838  0.6500405977657902  0.0980188910823831
  0.3265587572050430  0.3249055712211636  0.1002673490479350
  0.6821283915924917  0.0028547594636876  0.1003163334078503
  0.0041809899673256  0.6804369862568271  0.1002510907220145
  0.0832872476286359  0.4166579170521992  0.3364687046123544
  0.2498882602633877  0.2499857278803065  0.3365872524269192
  0.0832167577559157  0.9166432634115576  0.3364591796474869
  0.2498353162829749  0.7500635960275339  0.3364285296266375
  0.5833153475362118  0.4166799007077355  0.3364170368757883
  0.7499678585066253  0.2500293806467653  0.3364595289287858
  0.5833992462506621  0.9167509462937595  0.3365623496813097
  0.7501073166836538  0.7501354381165738  0.3364925702806233
 
  0.00000000E+00  0.00000000E+00  0.00000000E+00
  0.00000000E+00  0.00000000E+00  0.00000000E+00
  0.00000000E+00  0.00000000E+00  0.00000000E+00
  0.00000000E+00  0.00000000E+00  0.00000000E+00
  0.00000000E+00  0.00000000E+00  0.00000000E+00
  0.00000000E+00  0.00000000E+00  0.00000000E+00
  0.00000000E+00  0.00000000E+00  0.00000000E+00
  0.00000000E+00  0.00000000E+00  0.00000000E+00
  0.00000000E+00  0.00000000E+00  0.00000000E+00
  0.00000000E+00  0.00000000E+00  0.00000000E+00
  0.00000000E+00  0.00000000E+00  0.00000000E+00
  0.00000000E+00  0.00000000E+00  0.00000000E+00
  0.00000000E+00  0.00000000E+00  0.00000000E+00
  0.00000000E+00  0.00000000E+00  0.00000000E+00
  0.00000000E+00  0.00000000E+00  0.00000000E+00
