Graphene-B4C3 Bridge with lattice parame
   1.00000000000000     
     4.2019552591620952    2.4259999999999993    0.0000000000000000
    -4.2019552591620952    2.4259999999999993    0.0000000000000000
     0.0000000000000000    0.0000000000000000   15.0000000000000000
   B    C 
     4    11
Direct
  0.0045251716496416  0.0025371073663289  0.1034194314158980
  0.3595496423797802  0.0023215146577270  0.1010040005014660
  0.0047112256920534  0.3574007825492202  0.1014665447250247
  0.6499302289456530  0.6471539176801979  0.1013341839843564
  0.3285784347740125  0.3260951330029079  0.1014245188487260
  0.6807776119897178  0.0021926290590333  0.1018782426946951
  0.0046703233258473  0.6785818290940362  0.1015390127392872
  0.0828611867997692  0.4170558341238191  0.3366136533648583
  0.2495733042711436  0.2504106139768422  0.3368094007223026
  0.0828802572308840  0.9170519334702956  0.3367134400496952
  0.2495891699990828  0.7503738639253489  0.3365726991545849
  0.5829133440640519  0.4170365953341286  0.3366104088466025
  0.7495606848130466  0.2503369848389143  0.3365624415393587
  0.5829358841480743  0.9171512246023648  0.3367759439481550
  0.7495708632505637  0.7504007029855316  0.3366554107983251
 
  0.00000000E+00  0.00000000E+00  0.00000000E+00
  0.00000000E+00  0.00000000E+00  0.00000000E+00
  0.00000000E+00  0.00000000E+00  0.00000000E+00
  0.00000000E+00  0.00000000E+00  0.00000000E+00
  0.00000000E+00  0.00000000E+00  0.00000000E+00
  0.00000000E+00  0.00000000E+00  0.00000000E+00
  0.00000000E+00  0.00000000E+00  0.00000000E+00
  0.00000000E+00  0.00000000E+00  0.00000000E+00
  0.00000000E+00  0.00000000E+00  0.00000000E+00
  0.00000000E+00  0.00000000E+00  0.00000000E+00
  0.00000000E+00  0.00000000E+00  0.00000000E+00
  0.00000000E+00  0.00000000E+00  0.00000000E+00
  0.00000000E+00  0.00000000E+00  0.00000000E+00
  0.00000000E+00  0.00000000E+00  0.00000000E+00
  0.00000000E+00  0.00000000E+00  0.00000000E+00
