Graphene-B4C3 Bridge with lattice parame
   1.00000000000000     
     4.1863668018939757    2.4169999999999998    0.0000000000000000
    -4.1863668018939757    2.4169999999999998    0.0000000000000000
     0.0000000000000000    0.0000000000000000   15.0000000000000000
   B    C 
     4    11
Direct
  0.0464002338964352 -0.0374135070606060  0.0978994693433545
  0.4014508471171674 -0.0371200027950620  0.1020329437988495
  0.0461386764486180  0.3176011635844220  0.1021080818818385
  0.6915053267544848  0.6075413077063287  0.1020807785316328
  0.3701184408820566  0.2862113080813913  0.1014299320896304
  0.7228531590268321 -0.0372269710309246  0.1015790824640044
  0.0462427570070850  0.6388584335654025  0.1014605107402416
  0.0464076699150472  0.4517757883657644  0.3371039049951869
  0.2130488884019257  0.2851158315158852  0.3371301896188991
  0.0464130128204083  0.9518178628386360  0.3370300248673953
  0.2131149454227127  0.7851298334841779  0.3371389214791617
  0.5464302227700861  0.4518313858982146  0.3370958339801490
  0.7130884326843761  0.2851377741977812  0.3370398418098076
  0.5463695181036130  0.9517628732272415  0.3371282781376237
  0.7130452020824740  0.7850775850880439  0.3371215395955603
 
  0.00000000E+00  0.00000000E+00  0.00000000E+00
  0.00000000E+00  0.00000000E+00  0.00000000E+00
  0.00000000E+00  0.00000000E+00  0.00000000E+00
  0.00000000E+00  0.00000000E+00  0.00000000E+00
  0.00000000E+00  0.00000000E+00  0.00000000E+00
  0.00000000E+00  0.00000000E+00  0.00000000E+00
  0.00000000E+00  0.00000000E+00  0.00000000E+00
  0.00000000E+00  0.00000000E+00  0.00000000E+00
  0.00000000E+00  0.00000000E+00  0.00000000E+00
  0.00000000E+00  0.00000000E+00  0.00000000E+00
  0.00000000E+00  0.00000000E+00  0.00000000E+00
  0.00000000E+00  0.00000000E+00  0.00000000E+00
  0.00000000E+00  0.00000000E+00  0.00000000E+00
  0.00000000E+00  0.00000000E+00  0.00000000E+00
  0.00000000E+00  0.00000000E+00  0.00000000E+00
