Graphene-Borophene Hollow 1 with lattice
   1.00000000000000     
     4.3084763838275819    2.4874999999999998    0.0000000000000000
    -4.3084763838275819    2.4874999999999998    0.0000000000000000
     0.0000000000000000    0.0000000000000000   15.0000000000000000
   B    C 
     8     8
Direct
  0.6703953679303244 -0.0017856847202470  0.1666219013547021
  0.3327701955189823 -0.0015796006604061  0.1664749591847709
  0.0017856847202470  0.3296036320696779  0.1666219013547021
  0.0015796006604061  0.6672288044810198  0.1664749591847709
  0.3327051592152457  0.3296179646696570  0.1664074906164912
  0.6703810353303452  0.6672938407847563  0.1664074906164912
  0.6681292011968349  0.3318697988031677  0.1554371537842043
  0.3346751035211476  0.6653238964788553  0.1789944696641572
  0.2762480643247883  0.2237854804272521  0.4029032811746524
  0.4429227405858492  0.0571588148502956  0.4029752095582267
  0.2762154876607044  0.7237835123392978  0.4029408576830826
  0.4429124649074569  0.5570865350925455  0.4030204238290405
  0.7762159094700791  0.2237830905299238  0.4029042924151092
  0.9428921691240630  0.0571068308759396  0.4027371188467295
  0.7762135195727501  0.7237509356752141  0.4029032811746524
  0.9428401851497069  0.5570762594141536  0.4029752095582267
 
  0.00000000E+00  0.00000000E+00  0.00000000E+00
  0.00000000E+00  0.00000000E+00  0.00000000E+00
  0.00000000E+00  0.00000000E+00  0.00000000E+00
  0.00000000E+00  0.00000000E+00  0.00000000E+00
  0.00000000E+00  0.00000000E+00  0.00000000E+00
  0.00000000E+00  0.00000000E+00  0.00000000E+00
  0.00000000E+00  0.00000000E+00  0.00000000E+00
  0.00000000E+00  0.00000000E+00  0.00000000E+00
  0.00000000E+00  0.00000000E+00  0.00000000E+00
  0.00000000E+00  0.00000000E+00  0.00000000E+00
  0.00000000E+00  0.00000000E+00  0.00000000E+00
  0.00000000E+00  0.00000000E+00  0.00000000E+00
  0.00000000E+00  0.00000000E+00  0.00000000E+00
  0.00000000E+00  0.00000000E+00  0.00000000E+00
  0.00000000E+00  0.00000000E+00  0.00000000E+00
  0.00000000E+00  0.00000000E+00  0.00000000E+00
