Graphene-B4C3 Hollow 1 with lattice para
   1.00000000000000     
     4.1837687256826230    2.4155000000000002    0.0000000000000000
    -4.1837687256826230    2.4155000000000002    0.0000000000000000
     0.0000000000000000    0.0000000000000000   15.0000000000000000
   B    C 
     4    11
Direct
  0.0199669338695314 -0.0104158043663383  0.0982978349615468
  0.3742120196446211 -0.0105155545202373  0.1024532608210619
  0.0195779577320550  0.3447159134484892  0.1020361377424471
  0.6637122092761092  0.6335046170981132  0.1021591751070177
  0.3427952858155590  0.3128730795509950  0.1016536410180013
  0.6956626646589268 -0.0109304227024150  0.1012348686147788
  0.0193644285498986  0.6654349396584720  0.1016432924448646
  0.0978727290488633  0.4008533969342611  0.3377574656167319
  0.2645532012375992  0.2340412162954484  0.3378982340075701
  0.0979681723356639  0.9008521535642185  0.3377325637693765
  0.2646299678362505  0.7339887467224476  0.3377393658485423
  0.5979012407459402  0.4007750200985389  0.3376839292853636
  0.7644445661657010  0.2339272439709430  0.3378222235351883
  0.5978232552487096  0.9008412239823720  0.3379063956219243
  0.7643649233901214  0.7339326747091607  0.3377609449389063
 
  0.00000000E+00  0.00000000E+00  0.00000000E+00
  0.00000000E+00  0.00000000E+00  0.00000000E+00
  0.00000000E+00  0.00000000E+00  0.00000000E+00
  0.00000000E+00  0.00000000E+00  0.00000000E+00
  0.00000000E+00  0.00000000E+00  0.00000000E+00
  0.00000000E+00  0.00000000E+00  0.00000000E+00
  0.00000000E+00  0.00000000E+00  0.00000000E+00
  0.00000000E+00  0.00000000E+00  0.00000000E+00
  0.00000000E+00  0.00000000E+00  0.00000000E+00
  0.00000000E+00  0.00000000E+00  0.00000000E+00
  0.00000000E+00  0.00000000E+00  0.00000000E+00
  0.00000000E+00  0.00000000E+00  0.00000000E+00
  0.00000000E+00  0.00000000E+00  0.00000000E+00
  0.00000000E+00  0.00000000E+00  0.00000000E+00
  0.00000000E+00  0.00000000E+00  0.00000000E+00
