Graphene-B4C3 Top with lattice parameter
   1.00000000000000     
     4.1699123192220720    2.4075000000000002    0.0000000000000000
    -4.1699123192220720    2.4075000000000002    0.0000000000000000
     0.0000000000000000    0.0000000000000000   15.0000000000000000
   B    C 
     4    11
Direct
  0.0040384540639798  0.0026884028606877  0.1054032919579769
  0.3590684031159043  0.0029277618107704  0.0998051251456239
  0.0037948221518587  0.3574760665488945  0.0998057683892400
  0.6492482067711589  0.6476557746339852  0.0998021962086972
  0.3279637296124513  0.3263706988471158  0.1003978142065165
  0.6803484972097772  0.0029235206242380  0.1003942882149917
  0.0037851558611179  0.6787536217535776  0.1003909567767257
  0.0001483937160718  0.5000735027178234  0.3346921745769290
  0.1668048100491495  0.3334684987558818  0.3347331485136457
  0.0001309451539790  0.0000792686947370  0.3346483557969277
  0.1668450204606286  0.8334050079336495  0.3347368347326033
  0.5001397096974084  0.5001053291241133  0.3346950776040241
  0.6667971008266282  0.3334141544583977  0.3345841522107837
  0.5001057803599925  0.0000615351031152  0.3346905458451804
  0.6667416376165873  0.8333641894663377  0.3347329364868156
 
  0.00000000E+00  0.00000000E+00  0.00000000E+00
  0.00000000E+00  0.00000000E+00  0.00000000E+00
  0.00000000E+00  0.00000000E+00  0.00000000E+00
  0.00000000E+00  0.00000000E+00  0.00000000E+00
  0.00000000E+00  0.00000000E+00  0.00000000E+00
  0.00000000E+00  0.00000000E+00  0.00000000E+00
  0.00000000E+00  0.00000000E+00  0.00000000E+00
  0.00000000E+00  0.00000000E+00  0.00000000E+00
  0.00000000E+00  0.00000000E+00  0.00000000E+00
  0.00000000E+00  0.00000000E+00  0.00000000E+00
  0.00000000E+00  0.00000000E+00  0.00000000E+00
  0.00000000E+00  0.00000000E+00  0.00000000E+00
  0.00000000E+00  0.00000000E+00  0.00000000E+00
  0.00000000E+00  0.00000000E+00  0.00000000E+00
  0.00000000E+00  0.00000000E+00  0.00000000E+00
