Graphene-Borophene Top with lattice para
   1.00000000000000     
     4.3119404854427197    2.4895000000000000    0.0000000000000000
    -4.3119404854427197    2.4895000000000000    0.0000000000000000
     0.0000000000000000    0.0000000000000000   15.0000000000000000
   B    C 
     8     8
Direct
  0.6695805128840430  0.0000084378405026  0.1001911764263272
  0.3304269249564621  0.0000084378405026  0.1001911764263272
 -0.0000084378405026  0.3304184871159594  0.1001911764263272
 -0.0000084378405026  0.6695720750435407  0.1001911764263272
  0.3304269249564621  0.3304184871159594  0.1001911764263272
  0.6695805128840430  0.6695720750435407  0.1001911764263272
  0.6666659999999993  0.3333330000000032  0.0991151199247278
  0.3333330000000032  0.6666659999999993  0.1009045182343131
  0.1666406825691918  0.3332823651383882  0.3358545353137405
  0.3332907656171313  0.1666448828085633  0.3358438018349336
  0.1666406825691918  0.8333583174308106  0.3358545353137405
  0.3333330000000032  0.6666659999999993  0.3358864647085855
  0.6666659999999993  0.3333330000000032  0.3358518271283871
  0.8333541171914391  0.1666448828085633  0.3358438018349336
  0.6667166348616144  0.8333583174308106  0.3358545353137405
  0.8333541171914391  0.6667082343828710  0.3358438018349336
 
  0.00000000E+00  0.00000000E+00  0.00000000E+00
  0.00000000E+00  0.00000000E+00  0.00000000E+00
  0.00000000E+00  0.00000000E+00  0.00000000E+00
  0.00000000E+00  0.00000000E+00  0.00000000E+00
  0.00000000E+00  0.00000000E+00  0.00000000E+00
  0.00000000E+00  0.00000000E+00  0.00000000E+00
  0.00000000E+00  0.00000000E+00  0.00000000E+00
  0.00000000E+00  0.00000000E+00  0.00000000E+00
  0.00000000E+00  0.00000000E+00  0.00000000E+00
  0.00000000E+00  0.00000000E+00  0.00000000E+00
  0.00000000E+00  0.00000000E+00  0.00000000E+00
  0.00000000E+00  0.00000000E+00  0.00000000E+00
  0.00000000E+00  0.00000000E+00  0.00000000E+00
  0.00000000E+00  0.00000000E+00  0.00000000E+00
  0.00000000E+00  0.00000000E+00  0.00000000E+00
  0.00000000E+00  0.00000000E+00  0.00000000E+00
