Graphene with lattice parameter 2.480
        1.0
        4.295486    2.480000    0.000000
       -4.295486    2.480000    0.000000
        0.000000    0.000000    15.00000
        C
        8
        Direct
        0.166666    0.333333    0.100000
        0.333333    0.166666    0.100000
        0.166666    0.833333    0.100000
        0.333333    0.666666    0.100000
        0.666666    0.333333    0.100000
        0.833333    0.166666    0.100000
        0.666666    0.833333    0.100000
        0.833333    0.666666    0.100000