Graphene-BC3 Bridge with lattice paramet
   1.00000000000000     
     4.3673661112849240    2.5215000000000001    0.0000000000000000
    -4.3673661112849240    2.5215000000000001    0.0000000000000000
     0.0000000000000000    0.0000000000000000   15.0000000000000000
   B    C 
     2    14
Direct
  0.3382859013077639  0.6692136675544237  0.1002430592395872
  0.6716378432270492  0.3358648535322047  0.1001407631479484
  0.1645771411651919  0.3218678096117571  0.0998986281029950
  0.3241353563206769  0.1621989775785461  0.0999336048986187
  0.1645067349571857  0.8429935253337602  0.0999644819586488
  0.8452970917249303  0.1622091216140213  0.0998662691983856
  0.6856357137478134  0.8429315414922948  0.0999003908754137
  0.8453024528311868  0.6833744090648987  0.0999353920697379
  0.2500277966584959  0.2497899235395493  0.3264506530566607
  0.4166192121873509  0.0832356441058318  0.3263803370757737
  0.2500107263515324  0.7499870608703982  0.3262425576570632
  0.4167725655678280  0.5832208400790002  0.3262273018931297
  0.7500804381390055  0.2499110298102033  0.3262283067034222
  0.9168080479573016  0.0831838365161839  0.3264317430443487
  0.7502041158977394  0.7499683184130619  0.3264501876929062
  0.9167575286256527  0.5833747742171883  0.3263729900520170
 
  0.00000000E+00  0.00000000E+00  0.00000000E+00
  0.00000000E+00  0.00000000E+00  0.00000000E+00
  0.00000000E+00  0.00000000E+00  0.00000000E+00
  0.00000000E+00  0.00000000E+00  0.00000000E+00
  0.00000000E+00  0.00000000E+00  0.00000000E+00
  0.00000000E+00  0.00000000E+00  0.00000000E+00
  0.00000000E+00  0.00000000E+00  0.00000000E+00
  0.00000000E+00  0.00000000E+00  0.00000000E+00
  0.00000000E+00  0.00000000E+00  0.00000000E+00
  0.00000000E+00  0.00000000E+00  0.00000000E+00
  0.00000000E+00  0.00000000E+00  0.00000000E+00
  0.00000000E+00  0.00000000E+00  0.00000000E+00
  0.00000000E+00  0.00000000E+00  0.00000000E+00
  0.00000000E+00  0.00000000E+00  0.00000000E+00
  0.00000000E+00  0.00000000E+00  0.00000000E+00
  0.00000000E+00  0.00000000E+00  0.00000000E+00
