Graphene-Borophene Top with lattice para
   1.00000000000000     
     4.3119404854427197    2.4895000000000000    0.0000000000000000
    -4.3119404854427197    2.4895000000000000    0.0000000000000000
     0.0000000000000000    0.0000000000000000   15.0000000000000000
   C 
     8
Direct
  0.1666535758978895  0.3333081517957908  0.3345686379028976
  0.3333305180394817  0.1666647590197385  0.3344662388815820
  0.1666535758978895  0.8333454241021130  0.3345686379028976
  0.3333330000000032  0.6666659999999993  0.3346260210588525
  0.6666659999999993  0.3333330000000032  0.3344448285477029
  0.8333342409802640  0.1666647590197385  0.3344662388815820
  0.6666908482042118  0.8333454241021130  0.3345686379028976
  0.8333342409802640  0.6666684819605209  0.3344662388815820
