Graphene-Borophene Top with lattice para
   1.00000000000000     
     4.3180026632692110    2.4929999999999999    0.0000000000000000
    -4.3180026632692110    2.4929999999999999    0.0000000000000000
     0.0000000000000000    0.0000000000000000   15.0000000000000000
   B    C 
     8     8
Direct
  0.6684562663999840  0.0000194013799655  0.1673967432702739
  0.3315621349799838  0.0000194013799655  0.1673967432702739
 -0.0000194013799655  0.3315427336000187  0.1673967432702739
 -0.0000194013799655  0.6684368650200184  0.1673967432702739
  0.3315621349799838  0.3315427336000187  0.1673967432702739
  0.6684562663999840  0.6684368650200184  0.1673967432702739
  0.6666659999999993  0.3333330000000032  0.1544600160189362
  0.3333330000000032  0.6666659999999993  0.1800998187341443
  0.1666505756311172  0.3333021512622389  0.4004204423494372
  0.3333353216611029  0.1666671608305491  0.4003169077016877
  0.1666505756311172  0.8333484243688853  0.4004204423494372
  0.3333330000000032  0.6666659999999993  0.4004408235297424
  0.6666659999999993  0.3333330000000032  0.4002734986088512
  0.8333318391694535  0.1666671608305491  0.4003169077016877
  0.6666968487377631  0.8333484243688853  0.4004204423494372
  0.8333318391694535  0.6666636783389002  0.4003169077016877
 
  0.00000000E+00  0.00000000E+00  0.00000000E+00
  0.00000000E+00  0.00000000E+00  0.00000000E+00
  0.00000000E+00  0.00000000E+00  0.00000000E+00
  0.00000000E+00  0.00000000E+00  0.00000000E+00
  0.00000000E+00  0.00000000E+00  0.00000000E+00
  0.00000000E+00  0.00000000E+00  0.00000000E+00
  0.00000000E+00  0.00000000E+00  0.00000000E+00
  0.00000000E+00  0.00000000E+00  0.00000000E+00
  0.00000000E+00  0.00000000E+00  0.00000000E+00
  0.00000000E+00  0.00000000E+00  0.00000000E+00
  0.00000000E+00  0.00000000E+00  0.00000000E+00
  0.00000000E+00  0.00000000E+00  0.00000000E+00
  0.00000000E+00  0.00000000E+00  0.00000000E+00
  0.00000000E+00  0.00000000E+00  0.00000000E+00
  0.00000000E+00  0.00000000E+00  0.00000000E+00
  0.00000000E+00  0.00000000E+00  0.00000000E+00
