Graphene-BC3 Bridge with lattice paramet
   1.00000000000000     
     4.3214667648843488    2.4950000000000001    0.0000000000000000
    -4.3214667648843488    2.4950000000000001    0.0000000000000000
     0.0000000000000000    0.0000000000000000   15.0000000000000000
   B    C 
     2    14
Direct
  0.3164220372131782  0.6923607628529408  0.1001291795342320
  0.6495628457749302  0.3591946389868880  0.1003541417485115
  0.1429949232961241  0.3457659270579524  0.0976323983351566
  0.3028204810706578  0.1856278542508209  0.1026900384813053
  0.1428666297310669  0.8658212337322502  0.1048762222742427
  0.8230571123953071  0.1857556481869233  0.0950781160873185
  0.6630173118681001  0.8658676043972880  0.0974821090205569
  0.8230771393197108  0.7059386025712544  0.1026270747058842
  0.2720279622420417  0.2266065164076018  0.3263096808658394
  0.4386111792924901  0.0600962740182868  0.3262008429174661
  0.2719733464656591  0.7267615461099851  0.3259628065533035
  0.4386930914173411  0.5600292318847770  0.3262989704215552
  0.7720257500639136  0.2267069349775136  0.3261790398250677
  0.9387538521268920  0.0599683762504807  0.3263565317809787
  0.7721225357651925  0.7267058495583070  0.3262992832853039
  0.9386324686240997  0.5601183320900526  0.3261902308299350
 
  0.00000000E+00  0.00000000E+00  0.00000000E+00
  0.00000000E+00  0.00000000E+00  0.00000000E+00
  0.00000000E+00  0.00000000E+00  0.00000000E+00
  0.00000000E+00  0.00000000E+00  0.00000000E+00
  0.00000000E+00  0.00000000E+00  0.00000000E+00
  0.00000000E+00  0.00000000E+00  0.00000000E+00
  0.00000000E+00  0.00000000E+00  0.00000000E+00
  0.00000000E+00  0.00000000E+00  0.00000000E+00
  0.00000000E+00  0.00000000E+00  0.00000000E+00
  0.00000000E+00  0.00000000E+00  0.00000000E+00
  0.00000000E+00  0.00000000E+00  0.00000000E+00
  0.00000000E+00  0.00000000E+00  0.00000000E+00
  0.00000000E+00  0.00000000E+00  0.00000000E+00
  0.00000000E+00  0.00000000E+00  0.00000000E+00
  0.00000000E+00  0.00000000E+00  0.00000000E+00
  0.00000000E+00  0.00000000E+00  0.00000000E+00
