BC3 with lattice parameter 5.169        
   1.00000000000000     
     4.4764850000000003    2.5844999999999998    0.0000000000000000
    -4.4764850000000003    2.5844999999999998    0.0000000000000000
     0.0000000000000000    0.0000000000000000   15.0000000000000000
   B    C 
     2     6
Direct
  0.3383344877566009  0.6691651010164626  0.2500000000000000
  0.6716661026766472  0.3358318362315987  0.2500000000000000
  0.1637455076024684  0.3199987142344326  0.2500000000000000
  0.3224991411996687  0.1612493126217824  0.2500000000000000
  0.1637528417226043  0.8437488250956305  0.2500000000000000
  0.8462455861338570  0.1612509352869227  0.2500000000000000
  0.6875003665192210  0.8437511183220980  0.2500000000000000
  0.8462519663889347  0.6850001571910715  0.2500000000000000
 
  0.00000000E+00  0.00000000E+00  0.00000000E+00
  0.00000000E+00  0.00000000E+00  0.00000000E+00
  0.00000000E+00  0.00000000E+00  0.00000000E+00
  0.00000000E+00  0.00000000E+00  0.00000000E+00
  0.00000000E+00  0.00000000E+00  0.00000000E+00
  0.00000000E+00  0.00000000E+00  0.00000000E+00
  0.00000000E+00  0.00000000E+00  0.00000000E+00
  0.00000000E+00  0.00000000E+00  0.00000000E+00
