Graphene-B4C3 Hollow 1 with lattice para
   1.00000000000000     
     4.2045533353734497    2.4275000000000002    0.0000000000000000
    -4.2045533353734497    2.4275000000000002    0.0000000000000000
     0.0000000000000000    0.0000000000000000   15.0000000000000000
   B    C 
     4    11
Direct
  0.0056868704099958  0.0015339065129265  0.1003760525714263
  0.3608005223999189  0.0014617217085474  0.1014553684234356
  0.0057763331938193  0.3566350472841641  0.1015394990900068
  0.6506358193033089  0.6461934318794007  0.1015092923476407
  0.3292841254413215  0.3249248673198661  0.1013412956284511
  0.6821755847851967  0.0013671890200543  0.1013305209543794
  0.0057082518121653  0.6778241034563923  0.1013636546000706
  0.1097776667509355  0.3900723482759448  0.3378448107513840
  0.2764307657436569  0.2233670451489691  0.3379242913084768
  0.1098121468640065  0.8901404877837445  0.3379004754161153
  0.2764626369870828  0.7234403145121350  0.3377850183075928
  0.6097328818050709  0.3900534870946051  0.3378183041419011
  0.7764212789263835  0.2234171652041862  0.3378224553733363
  0.6097338409475375  0.8900437062419623  0.3379367173100220
  0.7764108301851503  0.7234036230015684  0.3378315771090821
 
  0.00000000E+00  0.00000000E+00  0.00000000E+00
  0.00000000E+00  0.00000000E+00  0.00000000E+00
  0.00000000E+00  0.00000000E+00  0.00000000E+00
  0.00000000E+00  0.00000000E+00  0.00000000E+00
  0.00000000E+00  0.00000000E+00  0.00000000E+00
  0.00000000E+00  0.00000000E+00  0.00000000E+00
  0.00000000E+00  0.00000000E+00  0.00000000E+00
  0.00000000E+00  0.00000000E+00  0.00000000E+00
  0.00000000E+00  0.00000000E+00  0.00000000E+00
  0.00000000E+00  0.00000000E+00  0.00000000E+00
  0.00000000E+00  0.00000000E+00  0.00000000E+00
  0.00000000E+00  0.00000000E+00  0.00000000E+00
  0.00000000E+00  0.00000000E+00  0.00000000E+00
  0.00000000E+00  0.00000000E+00  0.00000000E+00
  0.00000000E+00  0.00000000E+00  0.00000000E+00
