Graphene-B4C3 Bridge with lattice parame
   1.00000000000000     
     4.2114815386037252    2.4315000000000002    0.0000000000000000
    -4.2114815386037252    2.4315000000000002    0.0000000000000000
     0.0000000000000000    0.0000000000000000   15.0000000000000000
   B    C 
     4    11
Direct
  0.0352088411415382 -0.0265707207820612  0.1035201745289008
  0.3904487399142453 -0.0261707659170257  0.1005689923978831
  0.0348474612678981  0.3282249581902736  0.1005539839954700
  0.6801261326654682  0.6182817161237141  0.1005658267970944
  0.3584719966545842  0.2967950366380011  0.1006352700283806
  0.7119063942387571 -0.0265239575196758  0.1013444813424484
  0.0351983248471644  0.6499121147017656  0.1007682726562208
  0.0562703121025095  0.4423850064920678  0.3371348774259017
  0.2229190384568939  0.2757233939425656  0.3372180095379812
  0.0562479371216808  0.9423990358591474  0.3370524068805753
  0.2229723990579819  0.7756797725410272  0.3372574234368271
  0.5561935386881752  0.4423870578564342  0.3371344728348721
  0.7228632288545047  0.2756538677818580  0.3372013893983753
  0.5561486877735931  0.9423177418928794  0.3372078371890895
  0.7228043005483267  0.7756064088657254  0.3372159148833153
 
  0.00000000E+00  0.00000000E+00  0.00000000E+00
  0.00000000E+00  0.00000000E+00  0.00000000E+00
  0.00000000E+00  0.00000000E+00  0.00000000E+00
  0.00000000E+00  0.00000000E+00  0.00000000E+00
  0.00000000E+00  0.00000000E+00  0.00000000E+00
  0.00000000E+00  0.00000000E+00  0.00000000E+00
  0.00000000E+00  0.00000000E+00  0.00000000E+00
  0.00000000E+00  0.00000000E+00  0.00000000E+00
  0.00000000E+00  0.00000000E+00  0.00000000E+00
  0.00000000E+00  0.00000000E+00  0.00000000E+00
  0.00000000E+00  0.00000000E+00  0.00000000E+00
  0.00000000E+00  0.00000000E+00  0.00000000E+00
  0.00000000E+00  0.00000000E+00  0.00000000E+00
  0.00000000E+00  0.00000000E+00  0.00000000E+00
  0.00000000E+00  0.00000000E+00  0.00000000E+00
