Graphene-BC3 Hollow with lattice paramet
   1.00000000000000     
     4.3474475269978816    2.5099999999999998    0.0000000000000000
    -4.3474475269978816    2.5099999999999998    0.0000000000000000
     0.0000000000000000    0.0000000000000000   15.0000000000000000
   B    C 
     2    14
Direct
  0.3382783626860143  0.6691395186267131  0.1005050530222291
  0.6716161622720793  0.3358056202887404  0.1001401910927757
  0.1647246875506051  0.3220245671149424  0.1002184045419783
  0.3244161076837100  0.1622081443718187  0.1002092252907943
  0.1647271920259648  0.8426972668379932  0.1002180755538607
  0.8452034379416875  0.1622034378611656  0.1001915720901642
  0.6853886985193345  0.8426924039590470  0.1002012711072034
  0.8452063092630266  0.6830002707002025  0.1001913437856928
  0.3334007548006148  0.1667014334019452  0.3253557803258716
  0.5000962074069486  0.0001129719664037  0.3253313211068812
  0.3333830494033607  0.6666926149372233  0.3250381852703494
  0.5000962095071385  0.4999836539454093  0.3253313457894546
  0.8333783579517071  0.1667028027571899  0.3253505881620061
  0.0000580617065977  0.0000292646229880  0.3253011865287613
  0.8333784505695225  0.6666778301168642  0.3253506216903326
 -0.0000267159549779  0.4999868651580475  0.3253325013083169
 
  0.00000000E+00  0.00000000E+00  0.00000000E+00
  0.00000000E+00  0.00000000E+00  0.00000000E+00
  0.00000000E+00  0.00000000E+00  0.00000000E+00
  0.00000000E+00  0.00000000E+00  0.00000000E+00
  0.00000000E+00  0.00000000E+00  0.00000000E+00
  0.00000000E+00  0.00000000E+00  0.00000000E+00
  0.00000000E+00  0.00000000E+00  0.00000000E+00
  0.00000000E+00  0.00000000E+00  0.00000000E+00
  0.00000000E+00  0.00000000E+00  0.00000000E+00
  0.00000000E+00  0.00000000E+00  0.00000000E+00
  0.00000000E+00  0.00000000E+00  0.00000000E+00
  0.00000000E+00  0.00000000E+00  0.00000000E+00
  0.00000000E+00  0.00000000E+00  0.00000000E+00
  0.00000000E+00  0.00000000E+00  0.00000000E+00
  0.00000000E+00  0.00000000E+00  0.00000000E+00
  0.00000000E+00  0.00000000E+00  0.00000000E+00
