Graphene-Borophene Bridge with lattice p
   1.00000000000000     
     4.3119404854427197    2.4895000000000000    0.0000000000000000
    -4.3119404854427197    2.4895000000000000    0.0000000000000000
     0.0000000000000000    0.0000000000000000   15.0000000000000000
    B
    8
Direct
  0.6828595471591533 -0.0142567928786197  0.1012049609753422
  0.3458222082544096 -0.0142878337085254  0.1012082958719576
  0.0142567928786197  0.3171394528408490  0.1012049609753422
  0.0142878337085254  0.6541767917455927  0.1012082958719576
  0.3457252586706397  0.3170986491788802  0.1000619829932992
  0.6829003508211215  0.6542737413293629  0.1000619829932992
  0.6806363056435951  0.3193626943564084  0.0879160892613520
  0.3473924485617387  0.6526065514382641  0.1137938753259533
