Graphene - BC3 Top
1.00000000000000
    4.481422    2.58735   0.00000
    -4.481422   2.58735   0.00000
    0.000000    0.00000   15.00000
    B   C
    2   14
Direct
    0.333333    0.666666    0.333333
    0.666666    0.333333    0.333333
    0.166666    0.333333    0.333333
    0.333333    0.166666    0.333333
    0.166666    0.833333    0.333333
    0.833333    0.166666    0.333333
    0.666666    0.833333    0.333333
    0.833333    0.666666    0.333333
    0.166666    0.333333    0.100000
    0.333333    0.166666    0.100000
    0.166666    0.833333    0.100000
    0.333333    0.666666    0.100000
    0.666666    0.333333    0.100000
    0.833333    0.166666    0.100000
    0.666666    0.833333    0.100000
    0.833333    0.666666    0.100000