Graphene - BC3 Bridge
1.00000000000000
    4.481422    2.58735   0.00000
    -4.481422   2.58735   0.00000
    0.000000    0.00000   15.00000
    B   C
    2   14
Direct
    0.250000    0.750000    0.333333
    0.583333    0.416666    0.333333
    0.083333    0.416666    0.333333
    0.250000    0.250000    0.333333
    0.083333    0.916666    0.333333
    0.750000    0.250000    0.333333
    0.583333    0.916666    0.333333
    0.750000    0.750000    0.333333
    0.166666    0.333333    0.100000
    0.333333    0.166666    0.100000
    0.166666    0.833333    0.100000
    0.333333    0.666666    0.100000
    0.666666    0.333333    0.100000
    0.833333    0.166666    0.100000
    0.666666    0.833333    0.100000
    0.833333    0.666666    0.100000