Graphene layer with lattice parameter 2.468 Angstrom, 120 deg, 2x2 supercell
1.0
    4.2747      2.4680      0.0000
    -4.2747     2.4680      0.0000
    0.0000      0.0000      15.0000
    C
    8
Direct
    0.166666    0.333333    0.250000
    0.333333    0.166666    0.250000
    0.166666    0.833333    0.250000
    0.333333    0.666666    0.250000
    0.666666    0.333333    0.250000
    0.833333    0.166666    0.250000
    0.666666    0.833333    0.250000
    0.833333    0.666666    0.250000