B4C3 with lattice parameter 4.680       
   1.00000000000000     
     4.0529989999999998    2.3399999999999999    0.0000000000000000
    -4.0529989999999998    2.3399999999999999    0.0000000000000000
     0.0000000000000000    0.0000000000000000   15.0000000000000000
   B    C 
     4     3
Direct
  0.0041605750201638  0.0026945147974588  0.1211473039317071
  0.3567762302857134  0.0028359025381699  0.0972932542088297
  0.0042228676788466  0.3553339148608699  0.0972963266618045
  0.6515903745528444  0.6502292903890690  0.0972824309408125
  0.3280879916136195  0.3267016747030426  0.1002288074496100
  0.6802826358610982  0.0027996380321391  0.1002027153965621
  0.0041773249877111  0.6788430646792519  0.1001951614106854
 
  0.00000000E+00  0.00000000E+00  0.00000000E+00
  0.00000000E+00  0.00000000E+00  0.00000000E+00
  0.00000000E+00  0.00000000E+00  0.00000000E+00
  0.00000000E+00  0.00000000E+00  0.00000000E+00
  0.00000000E+00  0.00000000E+00  0.00000000E+00
  0.00000000E+00  0.00000000E+00  0.00000000E+00
  0.00000000E+00  0.00000000E+00  0.00000000E+00
