Graphene-B4C3 Top with lattice parameter
   1.00000000000000     
     4.1953684462351806    2.4222880147651109    0.0013684452249099
    -4.1951447925336378    2.4219019575045357    0.0003034214386851
     0.0021864267891412    0.0058857559903643   13.1177736893678976
   B    C 
     4    11
Direct
  0.0038388678766071  0.0024704441789699  0.0801796692447741
  0.3588494657336456  0.0029535731805052  0.0769619084701670
  0.0035682119646237  0.3571764360177573  0.0769661445466211
  0.6490801602347142  0.6475352835365955  0.0769639559064877
  0.3276144579590105  0.3261412114852306  0.0769513537197447
  0.6802935601314686  0.0027708877625466  0.0770600011920627
  0.0036620449257140  0.6787487681940674  0.0770613178709512
  0.0004821925995813  0.5002504877704798  0.3414205396940251
  0.1668255881947839  0.3335767456722064  0.3415649522656254
  0.0004399264259313  0.0002553231970292  0.3413989998248799
  0.1668945119497103  0.8334596712673908  0.3415746791453220
  0.5004706412088420  0.5003262169120196  0.3414218960673470
  0.6668066547352653  0.3334500138156056  0.3411428382603572
  0.5003993849146227  0.0002698369866705  0.3414154233388255
  0.6667349978121722  0.8333824333562504  0.3415623204528157
 
  0.00000000E+00  0.00000000E+00  0.00000000E+00
  0.00000000E+00  0.00000000E+00  0.00000000E+00
  0.00000000E+00  0.00000000E+00  0.00000000E+00
  0.00000000E+00  0.00000000E+00  0.00000000E+00
  0.00000000E+00  0.00000000E+00  0.00000000E+00
  0.00000000E+00  0.00000000E+00  0.00000000E+00
  0.00000000E+00  0.00000000E+00  0.00000000E+00
  0.00000000E+00  0.00000000E+00  0.00000000E+00
  0.00000000E+00  0.00000000E+00  0.00000000E+00
  0.00000000E+00  0.00000000E+00  0.00000000E+00
  0.00000000E+00  0.00000000E+00  0.00000000E+00
  0.00000000E+00  0.00000000E+00  0.00000000E+00
  0.00000000E+00  0.00000000E+00  0.00000000E+00
  0.00000000E+00  0.00000000E+00  0.00000000E+00
  0.00000000E+00  0.00000000E+00  0.00000000E+00
