Graphene-BC3 Bridge with lattice paramet
   1.00000000000000     
     4.3682321366887082    2.5219999999999998    0.0000000000000000
    -4.3682321366887082    2.5219999999999998    0.0000000000000000
     0.0000000000000000    0.0000000000000000   15.0000000000000000
   B    C 
     2    14
Direct
  0.3220228245088644  0.6864022101962781  0.1101426626930841
  0.6553882264676019  0.3530519223872823  0.1100459363196549
  0.1483123166606501  0.3390330404207064  0.1098378225720795
  0.3078604878106597  0.1794192809469105  0.1100722221948425
  0.1483282226526003  0.8601865496251712  0.1101974944877948
  0.8290106087600135  0.1793223779227279  0.1097168232450027
  0.6694061285155187  0.8600638959111852  0.1098439024010845
  0.8290916677325346  0.7005699706065748  0.1100784244745657
  0.2663146985987632  0.2327031660929536  0.3345718463063146
  0.4329581517483523  0.0661191404194774  0.3345952585683543
  0.2662958478538329  0.7327705965205593  0.3342784440672108
  0.4330324570919203  0.5660309049791405  0.3343785614171296
  0.7663184425696059  0.2327430873935288  0.3343323431887464
  0.9330118546370334  0.0660521064546838  0.3344789038582373
  0.7663618970671972  0.7327516332249137  0.3345755072455143
  0.9329448339915590  0.5661054502312305  0.3345871802937482
 
  0.00000000E+00  0.00000000E+00  0.00000000E+00
  0.00000000E+00  0.00000000E+00  0.00000000E+00
  0.00000000E+00  0.00000000E+00  0.00000000E+00
  0.00000000E+00  0.00000000E+00  0.00000000E+00
  0.00000000E+00  0.00000000E+00  0.00000000E+00
  0.00000000E+00  0.00000000E+00  0.00000000E+00
  0.00000000E+00  0.00000000E+00  0.00000000E+00
  0.00000000E+00  0.00000000E+00  0.00000000E+00
  0.00000000E+00  0.00000000E+00  0.00000000E+00
  0.00000000E+00  0.00000000E+00  0.00000000E+00
  0.00000000E+00  0.00000000E+00  0.00000000E+00
  0.00000000E+00  0.00000000E+00  0.00000000E+00
  0.00000000E+00  0.00000000E+00  0.00000000E+00
  0.00000000E+00  0.00000000E+00  0.00000000E+00
  0.00000000E+00  0.00000000E+00  0.00000000E+00
  0.00000000E+00  0.00000000E+00  0.00000000E+00
