Graphene-B4C3 Top with lattice parameter
   1.00000000000000     
     4.1846347510864073    2.4159999999999999    0.0000000000000000
    -4.1846347510864073    2.4159999999999999    0.0000000000000000
     0.0000000000000000    0.0000000000000000   15.0000000000000000
   B    C 
     4    11
Direct
  0.0040231794930072  0.0026707923708816  0.1023291549137429
  0.3591998727431912  0.0029423610137636  0.1003822738422543
  0.0037653186673601  0.3575916634134015  0.1003828629198658
  0.6491143305354575  0.6475121697185495  0.1003792770161943
  0.3278713070027260  0.3262715815902463  0.1005340652964934
  0.6804343212828683  0.0029334022613498  0.1005395337982231
  0.0037687496997756  0.6788329418000177  0.1005383055059514
  0.0001599636862930  0.5000798543255141  0.3348084938942093
  0.1668103955789549  0.3334642434778454  0.3348446292043250
  0.0001396483273249  0.0000841719812010  0.3347654730521060
  0.1668480903171718  0.8334143495889678  0.3348486076889260
  0.5001464254581444  0.5001119685889311  0.3348113652841791
  0.6668066166141787  0.3334193270950640  0.3346974447377145
  0.5001127432065104  0.0000639310872927  0.3348067019136222
  0.6667597040537289  0.8333745750202987  0.3348444775988751
 
  0.00000000E+00  0.00000000E+00  0.00000000E+00
  0.00000000E+00  0.00000000E+00  0.00000000E+00
  0.00000000E+00  0.00000000E+00  0.00000000E+00
  0.00000000E+00  0.00000000E+00  0.00000000E+00
  0.00000000E+00  0.00000000E+00  0.00000000E+00
  0.00000000E+00  0.00000000E+00  0.00000000E+00
  0.00000000E+00  0.00000000E+00  0.00000000E+00
  0.00000000E+00  0.00000000E+00  0.00000000E+00
  0.00000000E+00  0.00000000E+00  0.00000000E+00
  0.00000000E+00  0.00000000E+00  0.00000000E+00
  0.00000000E+00  0.00000000E+00  0.00000000E+00
  0.00000000E+00  0.00000000E+00  0.00000000E+00
  0.00000000E+00  0.00000000E+00  0.00000000E+00
  0.00000000E+00  0.00000000E+00  0.00000000E+00
  0.00000000E+00  0.00000000E+00  0.00000000E+00
