Graphene-Borophene Hollow 2 with lattice
   1.00000000000000     
     4.3387872729600359    2.5049999999999990    0.0000000000000000
    -4.3387872729600359    2.5049999999999990    0.0000000000000000
     0.0000000000000000    0.0000000000000000   15.0000000000000000
   B    C 
     8     8
Direct
  0.6693029169857700 -0.0000366342764917  0.1666943321442442
  0.3306594487377404 -0.0000366342764918  0.1666943321442442
  0.0000366342764918  0.3306960830142323  0.1666943321442442
  0.0000366342764917  0.6693395512622619  0.1666943321442442
  0.3306594487377404  0.3306960830142323  0.1666943321442442
  0.6693029169857699  0.6693395512622619  0.1666943321442442
  0.6666659999999993  0.3333330000000032  0.1644158568969197
  0.3333330000000032  0.6666659999999993  0.1693293768367596
  0.3333488282203798  0.1666744141101970  0.4038546747169212
  0.5000179490628718  0.0000358981257436  0.4039127901005095
  0.3333326666666636  0.6666663333333389  0.4038437965699910
  0.5000179490628718  0.4999810509371309  0.4039127901005094
  0.8333245858898051  0.1666744141101970  0.4038546747169212
  0.9999996666666675  0.9999993333333350  0.4037425823785630
  0.8333245858898051  0.6666501717796228  0.4038546747169212
 -0.0000368981257412  0.4999810509371309  0.4039127901005094
 
  0.00000000E+00  0.00000000E+00  0.00000000E+00
  0.00000000E+00  0.00000000E+00  0.00000000E+00
  0.00000000E+00  0.00000000E+00  0.00000000E+00
  0.00000000E+00  0.00000000E+00  0.00000000E+00
  0.00000000E+00  0.00000000E+00  0.00000000E+00
  0.00000000E+00  0.00000000E+00  0.00000000E+00
  0.00000000E+00  0.00000000E+00  0.00000000E+00
  0.00000000E+00  0.00000000E+00  0.00000000E+00
  0.00000000E+00  0.00000000E+00  0.00000000E+00
  0.00000000E+00  0.00000000E+00  0.00000000E+00
  0.00000000E+00  0.00000000E+00  0.00000000E+00
  0.00000000E+00  0.00000000E+00  0.00000000E+00
  0.00000000E+00  0.00000000E+00  0.00000000E+00
  0.00000000E+00  0.00000000E+00  0.00000000E+00
  0.00000000E+00  0.00000000E+00  0.00000000E+00
  0.00000000E+00  0.00000000E+00  0.00000000E+00
