BC3 with lattice parameter 5.169        
   1.00000000000000     
     4.4764850000000003    2.5844999999999998    0.0000000000000000
    -4.4764850000000003    2.5844999999999998    0.0000000000000000
     0.0000000000000000    0.0000000000000000   15.0000000000000000
   B    C 
     2     6
Direct
  0.3383342110733428  0.6691650865716944  0.2500000000000000
  0.6716663047804418  0.3358318913377238  0.2500000000000000
  0.1637461520659300  0.3199998841941388  0.2500000000000000
  0.3224998828210726  0.1612503420044876  0.2500000000000000
  0.1637543208177996  0.8437488801699385  0.2500000000000000
  0.8462441444008221  0.1612508818995445  0.2500000000000000
  0.6874996172204494  0.8437500393079327  0.2500000000000000
  0.8462513668201439  0.6849989945145384  0.2500000000000000
 
  0.00000000E+00  0.00000000E+00  0.00000000E+00
  0.00000000E+00  0.00000000E+00  0.00000000E+00
  0.00000000E+00  0.00000000E+00  0.00000000E+00
  0.00000000E+00  0.00000000E+00  0.00000000E+00
  0.00000000E+00  0.00000000E+00  0.00000000E+00
  0.00000000E+00  0.00000000E+00  0.00000000E+00
  0.00000000E+00  0.00000000E+00  0.00000000E+00
  0.00000000E+00  0.00000000E+00  0.00000000E+00
