k-points 43
0
Gamma
43    43    1
0    0    0