Graphene-B4C3 Hollow 2 with lattice para
   1.00000000000000     
     4.1967591067393890    2.4229999999999996    0.0000000000000000
    -4.1967591067393890    2.4229999999999996    0.0000000000000000
     0.0000000000000000    0.0000000000000000   15.0000000000000000
   B    C 
     4    11
Direct
  0.0042936651077854  0.0028504273415700  0.1020532362300420
  0.3594486164127071  0.0028563037836619  0.1008684260311849
  0.0043023645509732  0.3580056822471713  0.1008705253251112
  0.6491465794875267  0.6477004599984194  0.1008745344027974
  0.3279723765391129  0.3265261400396191  0.1009489802744280
  0.6806301709855428  0.0028569477325498  0.1009491580138447
  0.0043027450716788  0.6791847122847666  0.1009493808946974
  0.1665463071273294  0.3332610226964311  0.3379945231186463
  0.3332311084174721  0.1665801398446239  0.3379962574636605
  0.1665878938627387  0.8332820990789274  0.3379984705977533
  0.3332319557921386  0.6666028361714001  0.3378786312053911
  0.6665684432842357  0.3332611709329431  0.3378786322884423
  0.8332514589128130  0.1666212612188857  0.3379977959295571
  0.6665681587059210  0.8332425432154795  0.3379942553418499
  0.8332121557420301  0.6666022534135638  0.3379931928826203
 
  0.00000000E+00  0.00000000E+00  0.00000000E+00
  0.00000000E+00  0.00000000E+00  0.00000000E+00
  0.00000000E+00  0.00000000E+00  0.00000000E+00
  0.00000000E+00  0.00000000E+00  0.00000000E+00
  0.00000000E+00  0.00000000E+00  0.00000000E+00
  0.00000000E+00  0.00000000E+00  0.00000000E+00
  0.00000000E+00  0.00000000E+00  0.00000000E+00
  0.00000000E+00  0.00000000E+00  0.00000000E+00
  0.00000000E+00  0.00000000E+00  0.00000000E+00
  0.00000000E+00  0.00000000E+00  0.00000000E+00
  0.00000000E+00  0.00000000E+00  0.00000000E+00
  0.00000000E+00  0.00000000E+00  0.00000000E+00
  0.00000000E+00  0.00000000E+00  0.00000000E+00
  0.00000000E+00  0.00000000E+00  0.00000000E+00
  0.00000000E+00  0.00000000E+00  0.00000000E+00
