Graphene-B4C3 Bridge with lattice parame
   1.00000000000000     
     4.2435244785437485    2.4499999999999997    0.0000000000000000
    -4.2435244785437485    2.4499999999999997    0.0000000000000000
     0.0000000000000000    0.0000000000000000   15.0000000000000000
   B    C 
     4    11
Direct
  0.0356071949000978 -0.0269995132004784  0.1019192476123096
  0.3906806962896234 -0.0267782740494520  0.1011906405084644
  0.0353966786784045  0.3278461499448872  0.1012313836613987
  0.6807958861354428  0.6178588836978721  0.1012200697753051
  0.3588977745986969  0.2958894574367958  0.1012370734216146
  0.7127034348726976 -0.0267788480965765  0.1011842081983519
  0.0353465831954560  0.6496861922616670  0.1012497840410988
  0.0558286992578497  0.4427378041072715  0.3370161341227328
  0.2224583254705614  0.2760836331952992  0.3370776275681444
  0.0558218522816332  0.9427711471146942  0.3369483355750581
  0.2225246392052134  0.7761082481148833  0.3370232022035978
  0.5558349324100123  0.4427902843434937  0.3369915921487147
  0.7224768563977021  0.2760926665428497  0.3369844847308465
  0.5557760780160660  0.9427330445068308  0.3371026973420351
  0.7224777016238647  0.7760597907466587  0.3370028524236635
 
  0.00000000E+00  0.00000000E+00  0.00000000E+00
  0.00000000E+00  0.00000000E+00  0.00000000E+00
  0.00000000E+00  0.00000000E+00  0.00000000E+00
  0.00000000E+00  0.00000000E+00  0.00000000E+00
  0.00000000E+00  0.00000000E+00  0.00000000E+00
  0.00000000E+00  0.00000000E+00  0.00000000E+00
  0.00000000E+00  0.00000000E+00  0.00000000E+00
  0.00000000E+00  0.00000000E+00  0.00000000E+00
  0.00000000E+00  0.00000000E+00  0.00000000E+00
  0.00000000E+00  0.00000000E+00  0.00000000E+00
  0.00000000E+00  0.00000000E+00  0.00000000E+00
  0.00000000E+00  0.00000000E+00  0.00000000E+00
  0.00000000E+00  0.00000000E+00  0.00000000E+00
  0.00000000E+00  0.00000000E+00  0.00000000E+00
  0.00000000E+00  0.00000000E+00  0.00000000E+00
