Graphene-B4C3 Bridge with lattice parame
   1.00000000000000     
     4.1906969289128986    2.4195000000000002    0.0000000000000000
    -4.1906969289128986    2.4195000000000002    0.0000000000000000
     0.0000000000000000    0.0000000000000000   15.0000000000000000
   B    C 
     4    11
Direct
  0.0054196033240352  0.0015896220270651  0.1015275654041620
  0.3605754068415692  0.0015946818380517  0.1013637865426299
  0.0054462347120466  0.3566850017425053  0.1015706698306335
  0.6504945440696838  0.6463601092491563  0.1015031779394530
  0.3293154834015866  0.3251721097543442  0.1014130103729493
  0.6818780747258957  0.0016129807795194  0.1013170640728942
  0.0054439292863907  0.6777890211556593  0.1014304965640156
  0.0821521769060267  0.4177244111592819  0.3368450280134004
  0.2488342322039020  0.2510857970330981  0.3370181567937960
  0.0822003149442027  0.9177724981704841  0.3369147060637194
  0.2488820609643368  0.7510941610519049  0.3368967244604123
  0.5821816397114770  0.4177207366018037  0.3368649653935578
  0.7488414296661565  0.2510788661101819  0.3368651171917291
  0.5821627275698223  0.9177512248398105  0.3369323533449246
  0.7487994750061906  0.7510694451538296  0.3369165113450588
 
  0.00000000E+00  0.00000000E+00  0.00000000E+00
  0.00000000E+00  0.00000000E+00  0.00000000E+00
  0.00000000E+00  0.00000000E+00  0.00000000E+00
  0.00000000E+00  0.00000000E+00  0.00000000E+00
  0.00000000E+00  0.00000000E+00  0.00000000E+00
  0.00000000E+00  0.00000000E+00  0.00000000E+00
  0.00000000E+00  0.00000000E+00  0.00000000E+00
  0.00000000E+00  0.00000000E+00  0.00000000E+00
  0.00000000E+00  0.00000000E+00  0.00000000E+00
  0.00000000E+00  0.00000000E+00  0.00000000E+00
  0.00000000E+00  0.00000000E+00  0.00000000E+00
  0.00000000E+00  0.00000000E+00  0.00000000E+00
  0.00000000E+00  0.00000000E+00  0.00000000E+00
  0.00000000E+00  0.00000000E+00  0.00000000E+00
  0.00000000E+00  0.00000000E+00  0.00000000E+00
