Graphene-B4C3 Bridge with lattice parame
   1.00000000000000     
     4.1906969289128986    2.4195000000000002    0.0000000000000000
    -4.1906969289128986    2.4195000000000002    0.0000000000000000
     0.0000000000000000    0.0000000000000000   15.0000000000000000
   B    C 
     4    11
Direct
  0.0053186457227011  0.0016628173525371  0.1018437455998454
  0.3604260107341760  0.0016248912287477  0.1013525836197980
  0.0053327743566753  0.3567483695150575  0.1015311078719538
  0.6504414873057041  0.6464715994458483  0.1014698300852107
  0.3292882482449368  0.3251955414135487  0.1014311111582641
  0.6818566792875783  0.0017996669492649  0.1012451070240261
  0.0053513052174479  0.6778255914795784  0.1014332365329845
  0.0822759467778591  0.4177000913080638  0.3368449304518465
  0.2489287611648991  0.2510058366106011  0.3369647062207178
  0.0822701161018593  0.9177231329518346  0.3369168200079495
  0.2489608108670862  0.7510281278125264  0.3368609239078309
  0.5822086218223723  0.4176832338352449  0.3368706418233028
  0.7488881872335632  0.2509859158349469  0.3368246537152885
  0.5822033888859485  0.9176610744454469  0.3369172114422193
  0.7488763496105153  0.7509847764834487  0.3368727238720982
 
  0.00000000E+00  0.00000000E+00  0.00000000E+00
  0.00000000E+00  0.00000000E+00  0.00000000E+00
  0.00000000E+00  0.00000000E+00  0.00000000E+00
  0.00000000E+00  0.00000000E+00  0.00000000E+00
  0.00000000E+00  0.00000000E+00  0.00000000E+00
  0.00000000E+00  0.00000000E+00  0.00000000E+00
  0.00000000E+00  0.00000000E+00  0.00000000E+00
  0.00000000E+00  0.00000000E+00  0.00000000E+00
  0.00000000E+00  0.00000000E+00  0.00000000E+00
  0.00000000E+00  0.00000000E+00  0.00000000E+00
  0.00000000E+00  0.00000000E+00  0.00000000E+00
  0.00000000E+00  0.00000000E+00  0.00000000E+00
  0.00000000E+00  0.00000000E+00  0.00000000E+00
  0.00000000E+00  0.00000000E+00  0.00000000E+00
  0.00000000E+00  0.00000000E+00  0.00000000E+00
