Graphene-BC3 Hollow with lattice paramet
   1.00000000000000     
     4.2868257487329711    2.4750000000000001    0.0000000000000000
    -4.2868257487329711    2.4750000000000001    0.0000000000000000
     0.0000000000000000    0.0000000000000000   15.0000000000000000
   B    C 
     2    14
Direct
  0.3358998644820720  0.6679343969669738  0.1028637706105885
  0.6692858749634535  0.3347306574462399  0.1028007494768482
  0.1630126140695718  0.3217973250369331  0.1084296168995657
  0.3225828277959041  0.1612748995459412  0.1149165270190561
  0.1627796566019922  0.8410335966804995  0.1086320666751729
  0.8422684563858477  0.1614417464283483  0.0961577109171684
  0.6823887313324021  0.8411413717071162  0.0900940729153139
  0.8423524216859107  0.6807451302396061  0.0963742206847329
  0.3357587300855041  0.1679047096497437  0.3233780725550822
  0.5024727128162494  0.0013323425405334  0.3230824019094842
  0.3358015548794440  0.6679236556921599  0.3224601835001686
  0.5024695421805454  0.5011837001848921  0.3230821718178455
  0.8357420468905022  0.1679084609281323  0.3230424084218474
  0.0024348400081292  0.0012398741972583  0.3230308948252148
  0.8357392960860551  0.6678777082519121  0.3230453085111147
  0.0023361630697502  0.5011890911704041  0.3228764899274676
 
  0.00000000E+00  0.00000000E+00  0.00000000E+00
  0.00000000E+00  0.00000000E+00  0.00000000E+00
  0.00000000E+00  0.00000000E+00  0.00000000E+00
  0.00000000E+00  0.00000000E+00  0.00000000E+00
  0.00000000E+00  0.00000000E+00  0.00000000E+00
  0.00000000E+00  0.00000000E+00  0.00000000E+00
  0.00000000E+00  0.00000000E+00  0.00000000E+00
  0.00000000E+00  0.00000000E+00  0.00000000E+00
  0.00000000E+00  0.00000000E+00  0.00000000E+00
  0.00000000E+00  0.00000000E+00  0.00000000E+00
  0.00000000E+00  0.00000000E+00  0.00000000E+00
  0.00000000E+00  0.00000000E+00  0.00000000E+00
  0.00000000E+00  0.00000000E+00  0.00000000E+00
  0.00000000E+00  0.00000000E+00  0.00000000E+00
  0.00000000E+00  0.00000000E+00  0.00000000E+00
  0.00000000E+00  0.00000000E+00  0.00000000E+00
