Graphene-B4C3 Hollow 1 with lattice para
   1.00000000000000     
     4.1136206679760834    2.3750000000000000    0.0000000000000000
    -4.1136206679760834    2.3750000000000000    0.0000000000000000
     0.0000000000000000    0.0000000000000000   15.0000000000000000
   B    C 
     4    11
Direct
  0.0573969427283669 -0.0448470522331351  0.1161369726586015
  0.4114525370351652 -0.0445575744609104  0.1004856309653831
  0.0573603888964432  0.3090738774943751  0.1004792594139059
  0.7037509887794204  0.6013950713026669  0.1004862797224303
  0.3815501022178396  0.2791046611239404  0.1023103039439076
  0.7338086816687933 -0.0446508027779547  0.1023595649985048
  0.0572932113658736  0.6311220825307441  0.1023300495887574
  0.0644929602987339  0.4305245685179460  0.3358976243502029
  0.2311956806368139  0.2639007783064202  0.3360120173483442
  0.0644394850836870  0.9304751326223066  0.3358280475577514
  0.2312012041507622  0.7638182324479914  0.3358937326583393
  0.5643908980612200  0.4304934066306097  0.3358568121778097
  0.7310609136478309  0.2637820095918568  0.3357923756650628
  0.5643714866267016  0.9304783526433396  0.3359671131363766
  0.7310840743578988  0.7637657007042730  0.3359435491479431
 
  0.00000000E+00  0.00000000E+00  0.00000000E+00
  0.00000000E+00  0.00000000E+00  0.00000000E+00
  0.00000000E+00  0.00000000E+00  0.00000000E+00
  0.00000000E+00  0.00000000E+00  0.00000000E+00
  0.00000000E+00  0.00000000E+00  0.00000000E+00
  0.00000000E+00  0.00000000E+00  0.00000000E+00
  0.00000000E+00  0.00000000E+00  0.00000000E+00
  0.00000000E+00  0.00000000E+00  0.00000000E+00
  0.00000000E+00  0.00000000E+00  0.00000000E+00
  0.00000000E+00  0.00000000E+00  0.00000000E+00
  0.00000000E+00  0.00000000E+00  0.00000000E+00
  0.00000000E+00  0.00000000E+00  0.00000000E+00
  0.00000000E+00  0.00000000E+00  0.00000000E+00
  0.00000000E+00  0.00000000E+00  0.00000000E+00
  0.00000000E+00  0.00000000E+00  0.00000000E+00
