Graphene-BC3 Hollow with lattice paramet
   1.00000000000000     
     4.3682321366887082    2.5219999999999998    0.0000000000000000
    -4.3682321366887082    2.5219999999999998    0.0000000000000000
     0.0000000000000000    0.0000000000000000   15.0000000000000000
   B    C 
     2    14
Direct
  0.3382281476455378  0.6691090940221497  0.1135427835055516
  0.6715644816168058  0.3357770092792753  0.1132060971614991
  0.1645079140842046  0.3216680932463593  0.1131909770461121
  0.3240430198017772  0.1620166769697312  0.1132003363839841
  0.1645069047289661  0.8428287774079224  0.1131928969905333
  0.8453195105586832  0.1620148193822603  0.1131922676055188
  0.6856654976986232  0.8428264430792829  0.1131855879209313
  0.8453185671699159  0.6832956578147580  0.1131942364769120
  0.3334567172491714  0.1667321583447399  0.3380174344513113
  0.5001470382400151  0.0001470367079661  0.3379888619822959
  0.3334358063066806  0.6667217259354470  0.3376913719031095
  0.5001471289470844  0.5000106695488061  0.3379888671312415
  0.8334302958739772  0.1667334162496702  0.3380125383647827
  0.0001067100193910  0.0000585755069989  0.3379937554072037
  0.8334303091512877  0.6667044936282239  0.3380125450687769
  0.0000172842412114  0.5000140195431043  0.3379894426002365
 
  0.00000000E+00  0.00000000E+00  0.00000000E+00
  0.00000000E+00  0.00000000E+00  0.00000000E+00
  0.00000000E+00  0.00000000E+00  0.00000000E+00
  0.00000000E+00  0.00000000E+00  0.00000000E+00
  0.00000000E+00  0.00000000E+00  0.00000000E+00
  0.00000000E+00  0.00000000E+00  0.00000000E+00
  0.00000000E+00  0.00000000E+00  0.00000000E+00
  0.00000000E+00  0.00000000E+00  0.00000000E+00
  0.00000000E+00  0.00000000E+00  0.00000000E+00
  0.00000000E+00  0.00000000E+00  0.00000000E+00
  0.00000000E+00  0.00000000E+00  0.00000000E+00
  0.00000000E+00  0.00000000E+00  0.00000000E+00
  0.00000000E+00  0.00000000E+00  0.00000000E+00
  0.00000000E+00  0.00000000E+00  0.00000000E+00
  0.00000000E+00  0.00000000E+00  0.00000000E+00
  0.00000000E+00  0.00000000E+00  0.00000000E+00
