k-points 61
0
Gamma
61    61    1
0    0    0