k-points 30
0
Gamma
30    30    1
0    0    0