Graphene-BC3 Hollow with lattice paramet
   1.00000000000000     
     4.3682321366887074    2.5219999999999994    0.0000000000000000
    -4.3682321366887074    2.5219999999999994    0.0000000000000000
     0.0000000000000000    0.0000000000000000   15.0000000000000000
   B    C 
     2    14
Direct
  0.3383137739387340  0.6691561984481316  0.1003394446637919
  0.6716508558585136  0.3358248258545966  0.0999810745768282
  0.1646082667974515  0.3217358825241423  0.1000354918032556
  0.3241490824114850  0.1620727521394769  0.1000316127525658
  0.1646051131711600  0.8428674070268446  0.1000355340357135
  0.8453918613417162  0.1620733102224858  0.1000254464513624
  0.6857318516733412  0.8428653207904492  0.1000296783741049
  0.8453903049340777  0.6833199417268149  0.1000253661605444
  0.3333775267389224  0.1666881156896788  0.3255211586902604
  0.5000564578761787  0.0000963630844320  0.3254910023638394
  0.3333537283890483  0.6666762232470801  0.3252258942726726
  0.5000564386510048  0.4999618809194204  0.3254910011097123
  0.8333472231930464  0.1666896768060575  0.3255165228931188
  0.0000172380098934  0.0000094866648213  0.3255094467384350
  0.8333471771740728  0.6666561800696271  0.3255165483142428
  0.9999284331746885  0.4999651014526363  0.3254914434662237
 
  0.00000000E+00  0.00000000E+00  0.00000000E+00
  0.00000000E+00  0.00000000E+00  0.00000000E+00
  0.00000000E+00  0.00000000E+00  0.00000000E+00
  0.00000000E+00  0.00000000E+00  0.00000000E+00
  0.00000000E+00  0.00000000E+00  0.00000000E+00
  0.00000000E+00  0.00000000E+00  0.00000000E+00
  0.00000000E+00  0.00000000E+00  0.00000000E+00
  0.00000000E+00  0.00000000E+00  0.00000000E+00
  0.00000000E+00  0.00000000E+00  0.00000000E+00
  0.00000000E+00  0.00000000E+00  0.00000000E+00
  0.00000000E+00  0.00000000E+00  0.00000000E+00
  0.00000000E+00  0.00000000E+00  0.00000000E+00
  0.00000000E+00  0.00000000E+00  0.00000000E+00
  0.00000000E+00  0.00000000E+00  0.00000000E+00
  0.00000000E+00  0.00000000E+00  0.00000000E+00
  0.00000000E+00  0.00000000E+00  0.00000000E+00
