Graphene-BC3 Hollow with lattice paramet
   1.00000000000000     
     4.3682321366887074    2.5219999999999994    0.0000000000000000
    -4.3682321366887074    2.5219999999999994    0.0000000000000000
     0.0000000000000000    0.0000000000000000   15.0000000000000000
   B    C 
     2    14
Direct
  0.3383137738464078  0.6691561983649738  0.1003394450180133
  0.6716508557806640  0.3358248258117491  0.0999810746899173
  0.1646082666357792  0.3217358823904491  0.1000354922278277
  0.3241490823855457  0.1620727521220181  0.1000316131087715
  0.1646051129869442  0.8428674070098401  0.1000355344607606
  0.8453918612084514  0.1620733102200095  0.1000254467760222
  0.6857318516637337  0.8428653207861747  0.1000296787690019
  0.8453903047841634  0.6833199415942430  0.1000253664841229
  0.3333775269291389  0.1666881157733721  0.3255211583707731
  0.5000564578771042  0.0000963630427657  0.3254910019970642
  0.3333537285603847  0.6666762233207802  0.3252258939674964
  0.5000564386521079  0.4999618809936984  0.3254910007428971
  0.8333472233576418  0.1666896768905209  0.3255165225726283
  0.0000172380434950  0.0000094866974937  0.3255094463876091
  0.8333471773378242  0.6666561801253946  0.3255165479939202
  0.9999284332839485  0.4999651015232124  0.3254914430998457
 
  0.00000000E+00  0.00000000E+00  0.00000000E+00
  0.00000000E+00  0.00000000E+00  0.00000000E+00
  0.00000000E+00  0.00000000E+00  0.00000000E+00
  0.00000000E+00  0.00000000E+00  0.00000000E+00
  0.00000000E+00  0.00000000E+00  0.00000000E+00
  0.00000000E+00  0.00000000E+00  0.00000000E+00
  0.00000000E+00  0.00000000E+00  0.00000000E+00
  0.00000000E+00  0.00000000E+00  0.00000000E+00
  0.00000000E+00  0.00000000E+00  0.00000000E+00
  0.00000000E+00  0.00000000E+00  0.00000000E+00
  0.00000000E+00  0.00000000E+00  0.00000000E+00
  0.00000000E+00  0.00000000E+00  0.00000000E+00
  0.00000000E+00  0.00000000E+00  0.00000000E+00
  0.00000000E+00  0.00000000E+00  0.00000000E+00
  0.00000000E+00  0.00000000E+00  0.00000000E+00
  0.00000000E+00  0.00000000E+00  0.00000000E+00
