Graphene-Borophene Hollow 1 with lattice
   1.00000000000000     
     4.2998161297897379    2.4824999999999999    0.0000000000000000
    -4.2998161297897379    2.4824999999999999    0.0000000000000000
     0.0000000000000000    0.0000000000000000   15.0000000000000000
   B    C 
     8     8
Direct
  0.6711244137890768 -0.0023539232011801  0.1673584085189416
  0.3335242486296031 -0.0022501362262323  0.1672479510398733
  0.0023539232011801  0.3288745862109255  0.1673584085189416
  0.0022501362262323  0.6664747513703995  0.1672479510398733
  0.3332541503719003  0.3288782436629381  0.1662602603753787
  0.6711207563370643  0.6667448496281019  0.1662602603753787
  0.6686997571409623  0.3312992428590406  0.1544577843315209
  0.3353435509404322  0.6646554490595706  0.1801599530334083
  0.2756057855518764  0.2244430728688747  0.4025017873748232
  0.4422504790278939  0.0577858021384872  0.4026187499883012
  0.2755601867415037  0.7244388132584981  0.4026838288891700
  0.4422623605964661  0.5577366394035367  0.4026712185467374
  0.7755440273925953  0.2244549726074072  0.4025151787611575
  0.9422189879495023  0.0577800120505000  0.4023377218433801
  0.7755559271311278  0.7243932144481263  0.4025017873748232
  0.9422131978615156  0.5577485209721084  0.4026187499883012
 
  0.00000000E+00  0.00000000E+00  0.00000000E+00
  0.00000000E+00  0.00000000E+00  0.00000000E+00
  0.00000000E+00  0.00000000E+00  0.00000000E+00
  0.00000000E+00  0.00000000E+00  0.00000000E+00
  0.00000000E+00  0.00000000E+00  0.00000000E+00
  0.00000000E+00  0.00000000E+00  0.00000000E+00
  0.00000000E+00  0.00000000E+00  0.00000000E+00
  0.00000000E+00  0.00000000E+00  0.00000000E+00
  0.00000000E+00  0.00000000E+00  0.00000000E+00
  0.00000000E+00  0.00000000E+00  0.00000000E+00
  0.00000000E+00  0.00000000E+00  0.00000000E+00
  0.00000000E+00  0.00000000E+00  0.00000000E+00
  0.00000000E+00  0.00000000E+00  0.00000000E+00
  0.00000000E+00  0.00000000E+00  0.00000000E+00
  0.00000000E+00  0.00000000E+00  0.00000000E+00
  0.00000000E+00  0.00000000E+00  0.00000000E+00
