Graphene-BC3 Hollow with lattice paramet
   1.00000000000000     
     4.3639020096697863    2.5194999999999999    0.0000000000000000
    -4.3639020096697863    2.5194999999999999    0.0000000000000000
     0.0000000000000000    0.0000000000000000   15.0000000000000000
   B    C 
     2    14
Direct
  0.3383115590641548  0.6691537246921324  0.1003536557961874
  0.6716495219503487  0.3358240749998541  0.0999888829446186
  0.1646351310268620  0.3217951565277021  0.1000504585003556
  0.3242139596248465  0.1621053570602231  0.1000448659807037
  0.1646314386747607  0.8428356020447459  0.1000504633603466
  0.8453561800049887  0.1621061588077455  0.1000379465213035
  0.6856699526666392  0.8428342941469691  0.1000439613804228
  0.8453540310217148  0.6832513034918710  0.1000378788793235
  0.3333817424889599  0.1666898095859242  0.3255083343672924
  0.5000542100899436  0.0000920250642181  0.3254769207553179
  0.3333585768585302  0.6666782080484192  0.3252146155749576
  0.5000541957694969  0.4999649790037007  0.3254769201214899
  0.8333523468033708  0.1666912979230732  0.3255037052912439
  0.0000170722739353  0.0000099085847534  0.3254969881013366
  0.8333522708206462  0.6666588024937693  0.3255037320995806
  0.9999331441941349  0.4999679641915939  0.3254773369921914
 
  0.00000000E+00  0.00000000E+00  0.00000000E+00
  0.00000000E+00  0.00000000E+00  0.00000000E+00
  0.00000000E+00  0.00000000E+00  0.00000000E+00
  0.00000000E+00  0.00000000E+00  0.00000000E+00
  0.00000000E+00  0.00000000E+00  0.00000000E+00
  0.00000000E+00  0.00000000E+00  0.00000000E+00
  0.00000000E+00  0.00000000E+00  0.00000000E+00
  0.00000000E+00  0.00000000E+00  0.00000000E+00
  0.00000000E+00  0.00000000E+00  0.00000000E+00
  0.00000000E+00  0.00000000E+00  0.00000000E+00
  0.00000000E+00  0.00000000E+00  0.00000000E+00
  0.00000000E+00  0.00000000E+00  0.00000000E+00
  0.00000000E+00  0.00000000E+00  0.00000000E+00
  0.00000000E+00  0.00000000E+00  0.00000000E+00
  0.00000000E+00  0.00000000E+00  0.00000000E+00
  0.00000000E+00  0.00000000E+00  0.00000000E+00
