Graphene-Borophene Hollow 2 with lattice parameter 4.960 and distance 5.559
        1.0
        4.2954860027708150    2.4799999999999995    0.0000000000000000
       -4.2954860027708150    2.4799999999999995    0.0000000000000000
        0.0000000000000000    0.0000000000000000   15.0000000000000000
        B   C
        8   8
        Direct
        0.6688868879072842  0.0000000000000000  0.1000000000000014
        0.3311121120927183  0.0000000000000000  0.1000000000000014
        0.0000000000000000  0.3311121120927183  0.1000000000000014
        0.0000000000000000  0.6688868879072842  0.1000000000000014
        0.3311121120927183  0.3311121120927183  0.1000000000000014
        0.6688868879072842  0.6688868879072842  0.1000000000000014
        0.6666659999999993  0.3333330000000032  0.0992218869917920
        0.3333330000000032  0.6666659999999993  0.1007781130082108
        0.3333326666666659  0.1666663333333366  0.4706000000000000
        0.4999996666666698  -0.0000006666666674  0.4706000000000000
        0.3333326666666659  0.6666663333333366  0.4706000000000000
        0.4999996666666698  0.4999993333333327  0.4706000000000000
        0.8333326666666659  0.1666663333333366  0.4706000000000000
        0.9999996666666698  -0.0000006666666674  0.4706000000000000
        0.8333326666666659  0.6666663333333366  0.4706000000000000
        0.9999996666666698  0.4999993333333327  0.4706000000000000