Graphene-B4C3 Bridge with lattice parame
   1.00000000000000     
     4.1846347510864073    2.4159999999999999    0.0000000000000000
    -4.1846347510864073    2.4159999999999999    0.0000000000000000
     0.0000000000000000    0.0000000000000000   15.0000000000000000
   B    C 
     4    11
Direct
  0.0128570967545022 -0.0054967566620995  0.1003404256438847
  0.3678800643096864 -0.0053436049387403  0.1015141550393016
  0.0127948918817683  0.3497664333166760  0.1018388458893584
  0.6579945431522809  0.6394342643838336  0.1017625639849653
  0.3366752294476814  0.3180843936987506  0.1013829689370527
  0.6892996852738245 -0.0054072244428054  0.1016572600313423
  0.0127296240976041  0.6705463609139992  0.1014696725647279
  0.0757346370024354  0.4238865720763360  0.3368415621391000
  0.2424004275280721  0.2572490994641338  0.3370696428879847
  0.0757688067183074  0.9239563253071498  0.3369427927057880
  0.2424656034653865  0.7572606430514854  0.3369174416222428
  0.5757006723894846  0.4238861024725857  0.3368957368915957
  0.7423685218984746  0.2572424465795295  0.3368476462922116
  0.5756614730324939  0.9238496074758097  0.3369391349862805
  0.7422960563813209  0.7571860039700544  0.3369594837174987
 
  0.00000000E+00  0.00000000E+00  0.00000000E+00
  0.00000000E+00  0.00000000E+00  0.00000000E+00
  0.00000000E+00  0.00000000E+00  0.00000000E+00
  0.00000000E+00  0.00000000E+00  0.00000000E+00
  0.00000000E+00  0.00000000E+00  0.00000000E+00
  0.00000000E+00  0.00000000E+00  0.00000000E+00
  0.00000000E+00  0.00000000E+00  0.00000000E+00
  0.00000000E+00  0.00000000E+00  0.00000000E+00
  0.00000000E+00  0.00000000E+00  0.00000000E+00
  0.00000000E+00  0.00000000E+00  0.00000000E+00
  0.00000000E+00  0.00000000E+00  0.00000000E+00
  0.00000000E+00  0.00000000E+00  0.00000000E+00
  0.00000000E+00  0.00000000E+00  0.00000000E+00
  0.00000000E+00  0.00000000E+00  0.00000000E+00
  0.00000000E+00  0.00000000E+00  0.00000000E+00
