Graphene-BC3 Bridge with lattice paramet
   1.00000000000000     
     4.3682321366887082    2.5219999999999998    0.0000000000000000
    -4.3682321366887082    2.5219999999999998    0.0000000000000000
     0.0000000000000000    0.0000000000000000   15.0000000000000000
   B    C 
     2    14
Direct
  0.3167047955107805  0.6920004280871268  0.1096259355019100
  0.6501862527028024  0.3585518017606830  0.1094365130821515
  0.1431951621756369  0.3445950995817739  0.1096524125536718
  0.3026472623191552  0.1849284230977020  0.1091541837892862
  0.1429826538524424  0.8657163755500790  0.1089263249816241
  0.8238415190243771  0.1847884777643145  0.1098936920301270
  0.6641416765113917  0.8655893287375420  0.1096038628199665
  0.8238772416736637  0.7060881035330908  0.1091069819910118
  0.2715315942277599  0.2271260071459480  0.3351493941890951
  0.4381559962581463  0.0606279378492900  0.3350945897762969
  0.2715294481401003  0.7272433655763066  0.3347740266836681
  0.4382623238042527  0.5605006587742523  0.3349830494398063
  0.7715695233427269  0.2271993032790647  0.3349791784188483
  0.9382481777067966  0.0605192570665238  0.3351205830359589
  0.7716458602071228  0.7272415150273872  0.3351471498717729
  0.9381391792095357  0.5606092505022460  0.3350854551681479
 
  0.00000000E+00  0.00000000E+00  0.00000000E+00
  0.00000000E+00  0.00000000E+00  0.00000000E+00
  0.00000000E+00  0.00000000E+00  0.00000000E+00
  0.00000000E+00  0.00000000E+00  0.00000000E+00
  0.00000000E+00  0.00000000E+00  0.00000000E+00
  0.00000000E+00  0.00000000E+00  0.00000000E+00
  0.00000000E+00  0.00000000E+00  0.00000000E+00
  0.00000000E+00  0.00000000E+00  0.00000000E+00
  0.00000000E+00  0.00000000E+00  0.00000000E+00
  0.00000000E+00  0.00000000E+00  0.00000000E+00
  0.00000000E+00  0.00000000E+00  0.00000000E+00
  0.00000000E+00  0.00000000E+00  0.00000000E+00
  0.00000000E+00  0.00000000E+00  0.00000000E+00
  0.00000000E+00  0.00000000E+00  0.00000000E+00
  0.00000000E+00  0.00000000E+00  0.00000000E+00
  0.00000000E+00  0.00000000E+00  0.00000000E+00
