Graphene-Borophene Bridge with lattice p
   1.00000000000000     
     4.3145385616540723    2.4909999999999997    0.0000000000000000
    -4.3145385616540723    2.4909999999999997    0.0000000000000000
     0.0000000000000000    0.0000000000000000   15.0000000000000000
   B    C 
     8     8
Direct
  0.6697651136578874 -0.0000118881675627  0.1096812454468119
  0.3302919312446509  0.0000115785560693  0.1097056990760857
  0.0000118881675627  0.3302338863421150  0.1096812454468119
 -0.0000115785560693  0.6697070687553516  0.1097056990760857
  0.3303025677513474  0.3302979981800731  0.1097099275733192
  0.6697010018199294  0.6696964322486549  0.1097099275733192
  0.6666572791444725  0.3333417208555299  0.1088902046938949
  0.3333250990250672  0.6666739009749353  0.1123794574719548
  0.2510799189050262  0.2515390070715873  0.4592096307721283
  0.4177709639591118  0.0827330034389486  0.4590555387296285
  0.2499645206631505  0.7500344793368522  0.4589518799345249
  0.4165783606329809  0.5834206393670217  0.4591210041793178
  0.7489872622696807  0.2510117377303219  0.4591610882574865
  0.9165093484924357  0.0834896515075671  0.4593056156002457
  0.7484599929284151  0.7489190810949762  0.4592096307721283
  0.9172659965610538  0.5822280360408909  0.4590555387296285
 
  0.00000000E+00  0.00000000E+00  0.00000000E+00
  0.00000000E+00  0.00000000E+00  0.00000000E+00
  0.00000000E+00  0.00000000E+00  0.00000000E+00
  0.00000000E+00  0.00000000E+00  0.00000000E+00
  0.00000000E+00  0.00000000E+00  0.00000000E+00
  0.00000000E+00  0.00000000E+00  0.00000000E+00
  0.00000000E+00  0.00000000E+00  0.00000000E+00
  0.00000000E+00  0.00000000E+00  0.00000000E+00
  0.00000000E+00  0.00000000E+00  0.00000000E+00
  0.00000000E+00  0.00000000E+00  0.00000000E+00
  0.00000000E+00  0.00000000E+00  0.00000000E+00
  0.00000000E+00  0.00000000E+00  0.00000000E+00
  0.00000000E+00  0.00000000E+00  0.00000000E+00
  0.00000000E+00  0.00000000E+00  0.00000000E+00
  0.00000000E+00  0.00000000E+00  0.00000000E+00
  0.00000000E+00  0.00000000E+00  0.00000000E+00
