Graphene-Borophene Bridge with lattice p
   1.00000000000000     
     4.3145385616540723    2.4909999999999997    0.0000000000000000
    -4.3145385616540723    2.4909999999999997    0.0000000000000000
     0.0000000000000000    0.0000000000000000   15.0000000000000000
   B    C 
     8     8
Direct
  0.6698367103819837 -0.0001102369184031  0.1544701052410802
  0.3303697368918868 -0.0000151175552981  0.1546057261840670
  0.0001102369184031  0.3301622896180187  0.1544701052410802
  0.0000151175552981  0.6696292631081157  0.1546057261840670
  0.3304174465474459  0.3304295349861720  0.1546286482409585
  0.6695694650138305  0.6695815534525564  0.1546286482409585
  0.6666476721713267  0.3333513278286757  0.1535415603246299
  0.3332911873812969  0.6667078126187055  0.1659558730249112
  0.2525899416434934  0.2528362662331899  0.4135958789518693
  0.4185206670872935  0.0824501335563920  0.4128000027795777
  0.2503166241845819  0.7496823758154207  0.4122670872641840
  0.4160577818051516  0.5839412181948510  0.4131333076854993
  0.7482951214423670  0.2517038785576356  0.4133443369334655
  0.9159103574319212  0.0840886425680816  0.4140904453055772
  0.7471627337668125  0.7474090583565091  0.4135958789518693
  0.9175488664436104  0.5814783329127092  0.4128000027795777
 
  0.00000000E+00  0.00000000E+00  0.00000000E+00
  0.00000000E+00  0.00000000E+00  0.00000000E+00
  0.00000000E+00  0.00000000E+00  0.00000000E+00
  0.00000000E+00  0.00000000E+00  0.00000000E+00
  0.00000000E+00  0.00000000E+00  0.00000000E+00
  0.00000000E+00  0.00000000E+00  0.00000000E+00
  0.00000000E+00  0.00000000E+00  0.00000000E+00
  0.00000000E+00  0.00000000E+00  0.00000000E+00
  0.00000000E+00  0.00000000E+00  0.00000000E+00
  0.00000000E+00  0.00000000E+00  0.00000000E+00
  0.00000000E+00  0.00000000E+00  0.00000000E+00
  0.00000000E+00  0.00000000E+00  0.00000000E+00
  0.00000000E+00  0.00000000E+00  0.00000000E+00
  0.00000000E+00  0.00000000E+00  0.00000000E+00
  0.00000000E+00  0.00000000E+00  0.00000000E+00
  0.00000000E+00  0.00000000E+00  0.00000000E+00
