Graphene-Borophene Bridge with lattice p
   1.00000000000000     
     4.2781654946951262    2.4699999999999998    0.0000000000000000
    -4.2781654946951262    2.4699999999999998    0.0000000000000000
     0.0000000000000000    0.0000000000000000   15.0000000000000000
   B    C 
     8     8
Direct
  0.6708475764376030 -0.0019803588484408  0.1648647514527698
  0.3332841618888073 -0.0017568964066373  0.1659012482932866
  0.0019803588484408  0.3291514235624000  0.1648647514527698
  0.0017568964066373  0.6667148381111957  0.1659012482932866
  0.3327580902332434  0.3292626112270550  0.1680594846978249
  0.6707363887729471  0.6672409097667588  0.1680594846978249
  0.6680907632342948  0.3319082367657081  0.1801786618883896
  0.3347871409023298  0.6652118590976726  0.1518125717603268
  0.2481291668360565  0.2517751290511542  0.4028080709097315
  0.4149512874401510  0.0851920324409512  0.4029421094755862
  0.2482671234179790  0.7517318765820233  0.4028593433347669
  0.4149111118268783  0.5850878881731245  0.4028551938568745
  0.7481876224435368  0.2518113775564659  0.4029384242406582
  0.9149411394698992  0.0850578605301040  0.4027378085939575
  0.7482238709488480  0.7518698331639462  0.4028080709097315
  0.9148069675590516  0.5850477125598510  0.4029421094755862
 
  0.00000000E+00  0.00000000E+00  0.00000000E+00
  0.00000000E+00  0.00000000E+00  0.00000000E+00
  0.00000000E+00  0.00000000E+00  0.00000000E+00
  0.00000000E+00  0.00000000E+00  0.00000000E+00
  0.00000000E+00  0.00000000E+00  0.00000000E+00
  0.00000000E+00  0.00000000E+00  0.00000000E+00
  0.00000000E+00  0.00000000E+00  0.00000000E+00
  0.00000000E+00  0.00000000E+00  0.00000000E+00
  0.00000000E+00  0.00000000E+00  0.00000000E+00
  0.00000000E+00  0.00000000E+00  0.00000000E+00
  0.00000000E+00  0.00000000E+00  0.00000000E+00
  0.00000000E+00  0.00000000E+00  0.00000000E+00
  0.00000000E+00  0.00000000E+00  0.00000000E+00
  0.00000000E+00  0.00000000E+00  0.00000000E+00
  0.00000000E+00  0.00000000E+00  0.00000000E+00
  0.00000000E+00  0.00000000E+00  0.00000000E+00
