Graphene-Borophene Bridge with lattice p
   1.00000000000000     
     4.2824956217140491    2.4725000000000001    0.0000000000000000
    -4.2824956217140491    2.4725000000000001    0.0000000000000000
     0.0000000000000000    0.0000000000000000   15.0000000000000000
   B    C 
     8     8
Direct
  0.6719944709995180 -0.0031980786738958  0.1667015657570255
  0.3342042110404708 -0.0031890604484316  0.1678623381221606
  0.0031980786738958  0.3280045290004842  0.1667015657570255
  0.0031890604484315  0.6657947889595315  0.1678623381221606
  0.3338031266540498  0.3279872627528264  0.1693178291601852
  0.6720117372471763  0.6661958733459524  0.1693178291601852
  0.6693583882876992  0.3306406117123037  0.1807630683028018
  0.3360089047642013  0.6639900952358013  0.1530527734249111
  0.2470240192632728  0.2529866166626601  0.4013131284210879
  0.4137264953957814  0.0863757166632269  0.4014389301092414
  0.2470968168815897  0.7529021831184133  0.4012765708408680
  0.4136919894906410  0.5863070105093617  0.4013840370580819
  0.7470460694739874  0.2529529305260147  0.4014579196965294
  0.9136706313718702  0.0863283686281328  0.4013313808707778
  0.7470123833373419  0.7529749807367295  0.4013131284210879
  0.9136232833367756  0.5862725046042211  0.4014389301092414
 
  0.00000000E+00  0.00000000E+00  0.00000000E+00
  0.00000000E+00  0.00000000E+00  0.00000000E+00
  0.00000000E+00  0.00000000E+00  0.00000000E+00
  0.00000000E+00  0.00000000E+00  0.00000000E+00
  0.00000000E+00  0.00000000E+00  0.00000000E+00
  0.00000000E+00  0.00000000E+00  0.00000000E+00
  0.00000000E+00  0.00000000E+00  0.00000000E+00
  0.00000000E+00  0.00000000E+00  0.00000000E+00
  0.00000000E+00  0.00000000E+00  0.00000000E+00
  0.00000000E+00  0.00000000E+00  0.00000000E+00
  0.00000000E+00  0.00000000E+00  0.00000000E+00
  0.00000000E+00  0.00000000E+00  0.00000000E+00
  0.00000000E+00  0.00000000E+00  0.00000000E+00
  0.00000000E+00  0.00000000E+00  0.00000000E+00
  0.00000000E+00  0.00000000E+00  0.00000000E+00
  0.00000000E+00  0.00000000E+00  0.00000000E+00
