Graphene-Borophene Bridge with lattice p
   1.00000000000000     
     4.2521847325815934    2.4550000000000001    0.0000000000000000
    -4.2521847325815934    2.4550000000000001    0.0000000000000000
     0.0000000000000000    0.0000000000000000   15.0000000000000000
   B    C 
     8     8
Direct
  0.6704881910804087 -0.0011262646481915  0.1646204145936699
  0.3324161658204817 -0.0011854996410700  0.1657475160032013
  0.0011262646481915  0.3295108089195939  0.1646204145936699
  0.0011854996410700  0.6675828341795206  0.1657475160032013
  0.3316835111164496  0.3296538288733930  0.1682746354858040
  0.6703451711266097  0.6683154888835525  0.1682746354858040
  0.6673373224042033  0.3326616775957990  0.1820761331396012
  0.3340221287509097  0.6659768712490923  0.1495638116200237
  0.2489053644953573  0.2510793770476334  0.4029346650289583
  0.4155921470075938  0.0843945006458738  0.4030154714389954
  0.2489306159451104  0.7510683840548921  0.4029810480211410
  0.4156000834144027  0.5843989165855987  0.4028856653161620
  0.7489360788536898  0.2510629211463120  0.4030328431998355
  0.9155670000557263  0.0844319999442762  0.4028084269353505
  0.7489196229523694  0.7510936355046453  0.4029346650289584
  0.9156044993541291  0.5844068529924084  0.4030154714389954
 
  0.00000000E+00  0.00000000E+00  0.00000000E+00
  0.00000000E+00  0.00000000E+00  0.00000000E+00
  0.00000000E+00  0.00000000E+00  0.00000000E+00
  0.00000000E+00  0.00000000E+00  0.00000000E+00
  0.00000000E+00  0.00000000E+00  0.00000000E+00
  0.00000000E+00  0.00000000E+00  0.00000000E+00
  0.00000000E+00  0.00000000E+00  0.00000000E+00
  0.00000000E+00  0.00000000E+00  0.00000000E+00
  0.00000000E+00  0.00000000E+00  0.00000000E+00
  0.00000000E+00  0.00000000E+00  0.00000000E+00
  0.00000000E+00  0.00000000E+00  0.00000000E+00
  0.00000000E+00  0.00000000E+00  0.00000000E+00
  0.00000000E+00  0.00000000E+00  0.00000000E+00
  0.00000000E+00  0.00000000E+00  0.00000000E+00
  0.00000000E+00  0.00000000E+00  0.00000000E+00
  0.00000000E+00  0.00000000E+00  0.00000000E+00
