Graphene-B4C3 Top with lattice parameter
   1.00000000000000     
     4.1967591067393890    2.4229999999999996    0.0000000000000000
    -4.1967591067393890    2.4229999999999996    0.0000000000000000
     0.0000000000000000    0.0000000000000000   15.0000000000000000
   B    C 
     4    11
Direct
  0.0040419494482624  0.0026895309126504  0.1013640374634983
  0.3592306058076168  0.0029688877004754  0.1005030742018901
  0.0037536484339080  0.3575936449853220  0.1005039711841799
  0.6491339914352652  0.6474988281788669  0.1005002768358515
  0.3277694988932144  0.3261367936210549  0.1005309253135475
  0.6805884564142652  0.0029658030051690  0.1005314287611511
  0.0037580568437584  0.6789552442519475  0.1005290285940436
  0.0001447225130785  0.5000691930514505  0.3348844133538596
  0.1667956557266344  0.3334579617652992  0.3349205991773003
  0.0001274056390633  0.0000774410862962  0.3348450873034781
  0.1668381073721366  0.8334098649398208  0.3349246129046490
  0.5001380591057636  0.5001064434403479  0.3348871539898781
  0.6667938703526066  0.3334123213759262  0.3347842245881944
  0.5000994018212431  0.0000599749997156  0.3348829573141172
  0.6667472368598776  0.8333654000189828  0.3349208756810440
 
  0.00000000E+00  0.00000000E+00  0.00000000E+00
  0.00000000E+00  0.00000000E+00  0.00000000E+00
  0.00000000E+00  0.00000000E+00  0.00000000E+00
  0.00000000E+00  0.00000000E+00  0.00000000E+00
  0.00000000E+00  0.00000000E+00  0.00000000E+00
  0.00000000E+00  0.00000000E+00  0.00000000E+00
  0.00000000E+00  0.00000000E+00  0.00000000E+00
  0.00000000E+00  0.00000000E+00  0.00000000E+00
  0.00000000E+00  0.00000000E+00  0.00000000E+00
  0.00000000E+00  0.00000000E+00  0.00000000E+00
  0.00000000E+00  0.00000000E+00  0.00000000E+00
  0.00000000E+00  0.00000000E+00  0.00000000E+00
  0.00000000E+00  0.00000000E+00  0.00000000E+00
  0.00000000E+00  0.00000000E+00  0.00000000E+00
  0.00000000E+00  0.00000000E+00  0.00000000E+00
