k-points 11
0
Gamma
11   11   1
0    0    0