Graphene-B4C3 Top with lattice parameter
   1.00000000000000     
     4.1967591067393899    2.4230000000000000    0.0000000000000000
    -4.1967591067393899    2.4230000000000000    0.0000000000000000
     0.0000000000000000    0.0000000000000000   15.0000000000000000
   B    C 
     4    11
Direct
  0.0040408784156122  0.0026838380581862  0.1015814477540654
  0.3592280444442090  0.0029721417896159  0.1007027237935515
  0.0037530194272891  0.3575832034212248  0.1007036846946531
  0.6491370392455753  0.6474990730819560  0.1006995462344166
  0.3277647243400498  0.3261285965516267  0.1007341170100968
  0.6805934717581508  0.0029658463944674  0.1007330792135645
  0.0037547707473360  0.6789527055599249  0.1007303607623409
  0.0001454881803591  0.5000717429014460  0.3351080049892245
  0.1667962469678060  0.3334622001520718  0.3351423454425561
  0.0001275474751651  0.0000802414099127  0.3350671530971988
  0.1668406109012073  0.8334132119898089  0.3351463437214802
  0.5001387516690391  0.5001103866435374  0.3351108204147309
  0.6667947567562825  0.3334151834621449  0.3350040803519255
  0.5000985505529366  0.0000623779705210  0.3351064481490099
  0.6667467657856736  0.8333665839468810  0.3351425110378617
 
  0.00000000E+00  0.00000000E+00  0.00000000E+00
  0.00000000E+00  0.00000000E+00  0.00000000E+00
  0.00000000E+00  0.00000000E+00  0.00000000E+00
  0.00000000E+00  0.00000000E+00  0.00000000E+00
  0.00000000E+00  0.00000000E+00  0.00000000E+00
  0.00000000E+00  0.00000000E+00  0.00000000E+00
  0.00000000E+00  0.00000000E+00  0.00000000E+00
  0.00000000E+00  0.00000000E+00  0.00000000E+00
  0.00000000E+00  0.00000000E+00  0.00000000E+00
  0.00000000E+00  0.00000000E+00  0.00000000E+00
  0.00000000E+00  0.00000000E+00  0.00000000E+00
  0.00000000E+00  0.00000000E+00  0.00000000E+00
  0.00000000E+00  0.00000000E+00  0.00000000E+00
  0.00000000E+00  0.00000000E+00  0.00000000E+00
  0.00000000E+00  0.00000000E+00  0.00000000E+00
