Graphene-BC3 Bridge with lattice paramet
   1.00000000000000     
     4.3665000858811389    2.5209999999999995    0.0000000000000000
    -4.3665000858811389    2.5209999999999995    0.0000000000000000
     0.0000000000000000    0.0000000000000000   15.0000000000000000
   B    C 
     2    14
Direct
  0.3199412034874150  0.6887153108921305  0.1008240702436959
  0.6534005633580108  0.3552948916137277  0.1005923758944708
  0.1463452992495085  0.3413496844249895  0.1004906311966076
  0.3059109225698017  0.1816723456883682  0.1006157786358591
  0.1462421777129363  0.8624492769109745  0.1006651213952362
  0.8270578935399212  0.1816015818946771  0.1004404134755634
  0.6673186465193914  0.8623173539075920  0.1004875956053924
  0.8270218810261721  0.7027800399215535  0.1006088556346215
  0.2683481341531524  0.2304325177585468  0.3258119198327536
  0.4349801480444521  0.0638600609474976  0.3258095290425352
  0.2683088836800247  0.7305143468658898  0.3255394938953082
  0.4350426279355504  0.5637737052563273  0.3257201263030751
  0.7683476344312318  0.2304743802353890  0.3256968568739980
  0.9350448625511396  0.0637741889564343  0.3257477194554727
  0.7683870318074437  0.7304742310037885  0.3258126727155031
  0.9349607566005533  0.5638414170554372  0.3258035064665637
 
  0.00000000E+00  0.00000000E+00  0.00000000E+00
  0.00000000E+00  0.00000000E+00  0.00000000E+00
  0.00000000E+00  0.00000000E+00  0.00000000E+00
  0.00000000E+00  0.00000000E+00  0.00000000E+00
  0.00000000E+00  0.00000000E+00  0.00000000E+00
  0.00000000E+00  0.00000000E+00  0.00000000E+00
  0.00000000E+00  0.00000000E+00  0.00000000E+00
  0.00000000E+00  0.00000000E+00  0.00000000E+00
  0.00000000E+00  0.00000000E+00  0.00000000E+00
  0.00000000E+00  0.00000000E+00  0.00000000E+00
  0.00000000E+00  0.00000000E+00  0.00000000E+00
  0.00000000E+00  0.00000000E+00  0.00000000E+00
  0.00000000E+00  0.00000000E+00  0.00000000E+00
  0.00000000E+00  0.00000000E+00  0.00000000E+00
  0.00000000E+00  0.00000000E+00  0.00000000E+00
  0.00000000E+00  0.00000000E+00  0.00000000E+00
