Graphene-Borophene Bridge with lattice p
   1.00000000000000     
     4.3396532983638219    2.5055000000000001    0.0000000000000000
    -4.3396532983638219    2.5055000000000001    0.0000000000000000
     0.0000000000000000    0.0000000000000000   15.0000000000000000
   B    C 
     8     8
Direct
  0.6693893587870227 -0.0000003791362869  0.1002599110628198
  0.3306112810921239  0.0000001536637426  0.1002607256038496
  0.0000003791362869  0.3306096412129799  0.1002599110628198
 -0.0000001536637426  0.6693877189078787  0.1002607256038496
  0.3306113840603708  0.3306111123509028  0.1002608514219449
  0.6693878876490996  0.6693876159396316  0.1002608514219449
  0.6666657281955686  0.3333332718044341  0.0995448853043332
  0.3333324822703842  0.6666665177296184  0.1010380190239270
  0.2500269400379968  0.2500380423325051  0.4688004847413088
  0.4166933495562557  0.0833164351102291  0.4687963144111154
  0.2499980604353673  0.7500009395646353  0.4687935070729221
  0.4166635043184903  0.5833354956815124  0.4687980887875726
  0.7499734702574193  0.2500255297425832  0.4687991766279574
  0.9166624719767887  0.0833365280232138  0.4688030820345828
  0.7499609576674974  0.7499720599620057  0.4688004847413088
  0.9166825648897736  0.5833056504437468  0.4687963144111154
 
  0.00000000E+00  0.00000000E+00  0.00000000E+00
  0.00000000E+00  0.00000000E+00  0.00000000E+00
  0.00000000E+00  0.00000000E+00  0.00000000E+00
  0.00000000E+00  0.00000000E+00  0.00000000E+00
  0.00000000E+00  0.00000000E+00  0.00000000E+00
  0.00000000E+00  0.00000000E+00  0.00000000E+00
  0.00000000E+00  0.00000000E+00  0.00000000E+00
  0.00000000E+00  0.00000000E+00  0.00000000E+00
  0.00000000E+00  0.00000000E+00  0.00000000E+00
  0.00000000E+00  0.00000000E+00  0.00000000E+00
  0.00000000E+00  0.00000000E+00  0.00000000E+00
  0.00000000E+00  0.00000000E+00  0.00000000E+00
  0.00000000E+00  0.00000000E+00  0.00000000E+00
  0.00000000E+00  0.00000000E+00  0.00000000E+00
  0.00000000E+00  0.00000000E+00  0.00000000E+00
  0.00000000E+00  0.00000000E+00  0.00000000E+00
