Graphene-Borophene Hollow 2 with lattice
   1.00000000000000     
     4.3474475269978816    2.5099999999999998    0.0000000000000000
    -4.3474475269978816    2.5099999999999998    0.0000000000000000
     0.0000000000000000    0.0000000000000000   15.0000000000000000
   B    C 
     8     8
Direct
  0.6691673863453188 -0.0000614520772455  0.1666070871836977
  0.3307701615774374 -0.0000614520772455  0.1666070871836977
  0.0000614520772455  0.3308316136546833  0.1666070871836977
  0.0000614520772455  0.6692288384225648  0.1666070871836977
  0.3307701615774375  0.3308316136546833  0.1666070871836977
  0.6691673863453188  0.6692288384225648  0.1666070871836977
  0.6666659999999993  0.3333330000000032  0.1646930546775853
  0.3333330000000032  0.6666659999999993  0.1692058222613233
  0.3333544526199181  0.1666772263099661  0.4039008655430029
  0.5000200178651402  0.0000400357302806  0.4039770356277418
  0.3333326666666636  0.6666663333333389  0.4038874838637485
  0.5000200178651402  0.4999789821348624  0.4039770356277418
  0.8333217736900362  0.1666772263099661  0.4039008655430029
  0.9999996666666675  0.9999993333333350  0.4037374125829140
  0.8333217736900362  0.6666445473800844  0.4039008655430029
 -0.0000410357302780  0.4999789821348624  0.4039770356277418
 
  0.00000000E+00  0.00000000E+00  0.00000000E+00
  0.00000000E+00  0.00000000E+00  0.00000000E+00
  0.00000000E+00  0.00000000E+00  0.00000000E+00
  0.00000000E+00  0.00000000E+00  0.00000000E+00
  0.00000000E+00  0.00000000E+00  0.00000000E+00
  0.00000000E+00  0.00000000E+00  0.00000000E+00
  0.00000000E+00  0.00000000E+00  0.00000000E+00
  0.00000000E+00  0.00000000E+00  0.00000000E+00
  0.00000000E+00  0.00000000E+00  0.00000000E+00
  0.00000000E+00  0.00000000E+00  0.00000000E+00
  0.00000000E+00  0.00000000E+00  0.00000000E+00
  0.00000000E+00  0.00000000E+00  0.00000000E+00
  0.00000000E+00  0.00000000E+00  0.00000000E+00
  0.00000000E+00  0.00000000E+00  0.00000000E+00
  0.00000000E+00  0.00000000E+00  0.00000000E+00
  0.00000000E+00  0.00000000E+00  0.00000000E+00
