Graphene-B4C3 Hollow 2 with lattice para
   1.00000000000000     
     4.1915629543166828    2.4199999999999999    0.0000000000000000
    -4.1915629543166828    2.4199999999999999    0.0000000000000000
     0.0000000000000000    0.0000000000000000   15.0000000000000000
   B    C 
     4    11
Direct
  0.0041869568505814  0.0027746480894292  0.1183860533330388
  0.3569632169621231  0.0027820594975928  0.0980242415895438
  0.0041817311241537  0.3555455936282334  0.0980266823237298
  0.6514006706724392  0.6499962766691249  0.0980242054424008
  0.3265340574509421  0.3251190555934965  0.1002925303739089
  0.6818548100959967  0.0027968264395231  0.1002795840711609
  0.0042049802900065  0.6804428083726436  0.1002746995094886
  0.1667079434620770  0.3332855700502290  0.3372912190150346
  0.3332840873510729  0.1667086748689017  0.3372926588182203
  0.1665713201236234  0.8332879494278962  0.3372949578364576
  0.3333289816671041  0.6666605091636286  0.3370911841677136
  0.6666595740913964  0.3333315019296513  0.3370911693379599
  0.8332877963946995  0.1665737833139793  0.3372947494959876
  0.6667072839031215  0.8334203501795743  0.3372916542451353
  0.8334205895606698  0.6667083927761074  0.3372904104402465
 
  0.00000000E+00  0.00000000E+00  0.00000000E+00
  0.00000000E+00  0.00000000E+00  0.00000000E+00
  0.00000000E+00  0.00000000E+00  0.00000000E+00
  0.00000000E+00  0.00000000E+00  0.00000000E+00
  0.00000000E+00  0.00000000E+00  0.00000000E+00
  0.00000000E+00  0.00000000E+00  0.00000000E+00
  0.00000000E+00  0.00000000E+00  0.00000000E+00
  0.00000000E+00  0.00000000E+00  0.00000000E+00
  0.00000000E+00  0.00000000E+00  0.00000000E+00
  0.00000000E+00  0.00000000E+00  0.00000000E+00
  0.00000000E+00  0.00000000E+00  0.00000000E+00
  0.00000000E+00  0.00000000E+00  0.00000000E+00
  0.00000000E+00  0.00000000E+00  0.00000000E+00
  0.00000000E+00  0.00000000E+00  0.00000000E+00
  0.00000000E+00  0.00000000E+00  0.00000000E+00
