Graphene-B4C3 Hollow 2 with lattice para
   1.00000000000000     
     4.1915629543166828    2.4199999999999999    0.0000000000000000
    -4.1915629543166828    2.4199999999999999    0.0000000000000000
     0.0000000000000000    0.0000000000000000   15.0000000000000000
   B    C 
     4    11
Direct
  0.0042626918949742  0.0028672277177881  0.1043953638539329
  0.3593791680577176  0.0028263228255108  0.1007481887604840
  0.0042543043229206  0.3579410547892251  0.1007501345706187
  0.6490340724388205  0.6476214730737970  0.1007698938660150
  0.3276681808722928  0.3262622434600582  0.1012697814226529
  0.6807353182420186  0.0028152727136979  0.1013112302489966
  0.0042318802210745  0.6792854999413683  0.1013195631597703
  0.1664934919442999  0.3332552585848697  0.3375968876365874
  0.3332450054145661  0.1664991855580336  0.3375983877209470
  0.1667155058715557  0.8334671819363970  0.3375995681760733
  0.3332965744527357  0.6666291242986251  0.3375489285951416
  0.6666119539394016  0.3333097845733627  0.3375489629271377
  0.8334580718056293  0.1667318088691515  0.3375984154782617
  0.6666763336177938  0.8332311205555989  0.3375954870532805
  0.8332314469042066  0.6666914411025271  0.3375952065301274
 
  0.00000000E+00  0.00000000E+00  0.00000000E+00
  0.00000000E+00  0.00000000E+00  0.00000000E+00
  0.00000000E+00  0.00000000E+00  0.00000000E+00
  0.00000000E+00  0.00000000E+00  0.00000000E+00
  0.00000000E+00  0.00000000E+00  0.00000000E+00
  0.00000000E+00  0.00000000E+00  0.00000000E+00
  0.00000000E+00  0.00000000E+00  0.00000000E+00
  0.00000000E+00  0.00000000E+00  0.00000000E+00
  0.00000000E+00  0.00000000E+00  0.00000000E+00
  0.00000000E+00  0.00000000E+00  0.00000000E+00
  0.00000000E+00  0.00000000E+00  0.00000000E+00
  0.00000000E+00  0.00000000E+00  0.00000000E+00
  0.00000000E+00  0.00000000E+00  0.00000000E+00
  0.00000000E+00  0.00000000E+00  0.00000000E+00
  0.00000000E+00  0.00000000E+00  0.00000000E+00
