Graphene-B4C3 Hollow 1 with lattice para
   1.00000000000000     
     4.1699123192220720    2.4075000000000002    0.0000000000000000
    -4.1699123192220720    2.4075000000000002    0.0000000000000000
     0.0000000000000000    0.0000000000000000   15.0000000000000000
   B    C 
     4    11
Direct
  0.0138386725541503 -0.0057419228814296  0.0956633321640040
  0.3686801242316047 -0.0057553897776148  0.1031692946850754
  0.0139110616660645  0.3489878881440481  0.1032313524040276
  0.6590096757689961  0.6391689712226551  0.1032176375078962
  0.3376392895978636  0.3178153415854247  0.1022370033660216
  0.6900030301427735 -0.0059154802636824  0.1021295277466734
  0.0135929563159418  0.6702167665369660  0.1022724214755006
  0.1027274111116232  0.3964716437448957  0.3374370627534761
  0.2693634035870799  0.2297898967974560  0.3375710546661815
  0.1027148239838031  0.8964876253441216  0.3374905731196144
  0.2693844259920904  0.7298560181237539  0.3374562275787545
  0.6026545697363943  0.3964624835859122  0.3374467291267390
  0.7693197796315033  0.2297852649352010  0.3374522270831445
  0.6026670264866961  0.8964378757035969  0.3375388515614720
  0.7693433047489647  0.7298114616431624  0.3374660380947409
 
  0.00000000E+00  0.00000000E+00  0.00000000E+00
  0.00000000E+00  0.00000000E+00  0.00000000E+00
  0.00000000E+00  0.00000000E+00  0.00000000E+00
  0.00000000E+00  0.00000000E+00  0.00000000E+00
  0.00000000E+00  0.00000000E+00  0.00000000E+00
  0.00000000E+00  0.00000000E+00  0.00000000E+00
  0.00000000E+00  0.00000000E+00  0.00000000E+00
  0.00000000E+00  0.00000000E+00  0.00000000E+00
  0.00000000E+00  0.00000000E+00  0.00000000E+00
  0.00000000E+00  0.00000000E+00  0.00000000E+00
  0.00000000E+00  0.00000000E+00  0.00000000E+00
  0.00000000E+00  0.00000000E+00  0.00000000E+00
  0.00000000E+00  0.00000000E+00  0.00000000E+00
  0.00000000E+00  0.00000000E+00  0.00000000E+00
  0.00000000E+00  0.00000000E+00  0.00000000E+00
