Graphene-B4C3 Bridge with lattice parame
   1.00000000000000     
     4.2140796148150779    2.4329999999999998    0.0000000000000000
    -4.2140796148150779    2.4329999999999998    0.0000000000000000
     0.0000000000000000    0.0000000000000000   15.0000000000000000
   B    C 
     4    11
Direct
  0.0394794878935084 -0.0307209927711666  0.1034009104059739
  0.3946764331608663 -0.0307285077893414  0.1021717185180515
  0.0392980135462302  0.3241219529513840  0.1021240986641551
  0.6848011091047146  0.6138308077369623  0.1021435070581210
  0.3631964117150819  0.2923062486997352  0.1022502953173664
  0.7163190644438352 -0.0306281225839900  0.1023145107285090
  0.0395719422095141  0.6457698349788782  0.1022828785940560
  0.0523941201791884  0.4461553770748736  0.3360649366389394
  0.2190457641195817  0.2795075916576180  0.3361462638016939
  0.0523386840679099  0.9460993574561011  0.3360882148018670
  0.2191276377390566  0.7794521231190766  0.3361157052881291
  0.5523084854580584  0.4461562815760935  0.3361066880300227
  0.7189467429616199  0.2793599678188868  0.3359626588758702
  0.5522419915397725  0.9460491055699405  0.3360956054625318
  0.7188814451943834  0.7793696411716455  0.3361113411480494
 
  0.00000000E+00  0.00000000E+00  0.00000000E+00
  0.00000000E+00  0.00000000E+00  0.00000000E+00
  0.00000000E+00  0.00000000E+00  0.00000000E+00
  0.00000000E+00  0.00000000E+00  0.00000000E+00
  0.00000000E+00  0.00000000E+00  0.00000000E+00
  0.00000000E+00  0.00000000E+00  0.00000000E+00
  0.00000000E+00  0.00000000E+00  0.00000000E+00
  0.00000000E+00  0.00000000E+00  0.00000000E+00
  0.00000000E+00  0.00000000E+00  0.00000000E+00
  0.00000000E+00  0.00000000E+00  0.00000000E+00
  0.00000000E+00  0.00000000E+00  0.00000000E+00
  0.00000000E+00  0.00000000E+00  0.00000000E+00
  0.00000000E+00  0.00000000E+00  0.00000000E+00
  0.00000000E+00  0.00000000E+00  0.00000000E+00
  0.00000000E+00  0.00000000E+00  0.00000000E+00
