Graphene-B4C3 Top with lattice parameter
   1.00000000000000     
     4.1961422042731087    2.4225074201974590    0.0027781007621123
    -4.1960727462006320    2.4223871690691849    0.0006594060709514
     0.0040396411951598    0.0112346973494327   14.2973677855876762
   B    C 
     4    11
Direct
  0.0039418554460147  0.0027095927379425  0.0913441165857228
  0.3587878591816429  0.0027470598093017  0.0873803901132593
  0.0035778880886959  0.3572714499918288  0.0873779593761291
  0.6493460567881965  0.6477037974324844  0.0873500713273594
  0.3278492156257441  0.3259572872214461  0.0879498333702899
  0.6806006542805991  0.0031941084430530  0.0876317165263102
  0.0034554448997024  0.6787741319257617  0.0876274028759669
  0.0001470270216512  0.5000231183586361  0.3321729555375744
  0.1667933752349194  0.3334507355803898  0.3321249466583117
  0.0002246115121960  0.0001451399883646  0.3320664941939163
  0.1669721124529949  0.8335605044242974  0.3321144556122924
  0.5003233030480015  0.5001873779960908  0.3321824897447163
  0.6669025398817572  0.3334875120218609  0.3320368601337457
  0.5001571460837907  0.0001679521977871  0.3321679970682614
  0.6668815771207862  0.8333875652040809  0.3321183108761513
 
  0.00000000E+00  0.00000000E+00  0.00000000E+00
  0.00000000E+00  0.00000000E+00  0.00000000E+00
  0.00000000E+00  0.00000000E+00  0.00000000E+00
  0.00000000E+00  0.00000000E+00  0.00000000E+00
  0.00000000E+00  0.00000000E+00  0.00000000E+00
  0.00000000E+00  0.00000000E+00  0.00000000E+00
  0.00000000E+00  0.00000000E+00  0.00000000E+00
  0.00000000E+00  0.00000000E+00  0.00000000E+00
  0.00000000E+00  0.00000000E+00  0.00000000E+00
  0.00000000E+00  0.00000000E+00  0.00000000E+00
  0.00000000E+00  0.00000000E+00  0.00000000E+00
  0.00000000E+00  0.00000000E+00  0.00000000E+00
  0.00000000E+00  0.00000000E+00  0.00000000E+00
  0.00000000E+00  0.00000000E+00  0.00000000E+00
  0.00000000E+00  0.00000000E+00  0.00000000E+00
