Graphene-BC3 Top with lattice parameter 
   1.00000000000000     
     4.3578398318432949    2.5160000000000000    0.0000000000000000
    -4.3578398318432949    2.5160000000000000    0.0000000000000000
     0.0000000000000000    0.0000000000000000   15.0000000000000000
   B    C 
     2    14
Direct
  0.3383344772330821  0.6691672465142563  0.1002375825017130
  0.6716674496728996  0.3358336156287666  0.1002375724361855
  0.1647004476109444  0.3218956024686942  0.0999145078224185
  0.3243988554517926  0.1621995181282482  0.0999135193667451
  0.1647016534490091  0.8428055900840677  0.0999145057412508
  0.8453082558841590  0.1621968740497352  0.0999160721658621
  0.6856138656837860  0.8428059696730080  0.0999166799649007
  0.8453097098786446  0.6831105487702416  0.0999160662945613
  0.1665675517889662  0.3331419055651565  0.3288795032855071
  0.3331394583976899  0.1665695281627667  0.3288806099909777
  0.1665675535355613  0.8334252483404554  0.3288795030031552
  0.3333268390318818  0.6666632205016589  0.3285819099529042
  0.6666602203765746  0.3333299108158383  0.3285819074514960
  0.8334228640199253  0.1665700665535571  0.3288771138902554
  0.6668499390285244  0.8334247705549420  0.3288758326591846
  0.8334228589565785  0.6668523841886161  0.3288771134729030
 
  0.00000000E+00  0.00000000E+00  0.00000000E+00
  0.00000000E+00  0.00000000E+00  0.00000000E+00
  0.00000000E+00  0.00000000E+00  0.00000000E+00
  0.00000000E+00  0.00000000E+00  0.00000000E+00
  0.00000000E+00  0.00000000E+00  0.00000000E+00
  0.00000000E+00  0.00000000E+00  0.00000000E+00
  0.00000000E+00  0.00000000E+00  0.00000000E+00
  0.00000000E+00  0.00000000E+00  0.00000000E+00
  0.00000000E+00  0.00000000E+00  0.00000000E+00
  0.00000000E+00  0.00000000E+00  0.00000000E+00
  0.00000000E+00  0.00000000E+00  0.00000000E+00
  0.00000000E+00  0.00000000E+00  0.00000000E+00
  0.00000000E+00  0.00000000E+00  0.00000000E+00
  0.00000000E+00  0.00000000E+00  0.00000000E+00
  0.00000000E+00  0.00000000E+00  0.00000000E+00
  0.00000000E+00  0.00000000E+00  0.00000000E+00
