Graphene-B4C3 Top with lattice parameter
   1.00000000000000     
     4.2123475640075094    2.4319999999999999    0.0000000000000000
    -4.2123475640075094    2.4319999999999999    0.0000000000000000
     0.0000000000000000    0.0000000000000000   15.0000000000000000
   B    C 
     4    11
Direct
  0.0040406799490450  0.0026875705852959  0.1008330079938765
  0.3592274173701366  0.0029930310433371  0.1003752861456656
  0.0037294904314127  0.3575660348506363  0.1003764597273152
  0.6491607158876465  0.6475022466963267  0.1003717396445069
  0.3276091105786078  0.3259546478109610  0.1003559290143642
  0.6807679111800456  0.0029870133831074  0.1003554796537520
  0.0037349753220990  0.6791134373844725  0.1003526730872981
  0.0001479022689466  0.5000693532679682  0.3350659048836489
  0.1667940328626359  0.3334579788997502  0.3350988025387878
  0.0001289652873362  0.0000780641658363  0.3350244003570397
  0.1668393103417885  0.8334121357670267  0.3351027765124294
  0.5001399844428062  0.5001095584603432  0.3350686523481837
  0.6667938820121260  0.3334127826229393  0.3349678645067942
  0.5000984337307300  0.0000588384918674  0.3350645626201025
  0.6667478550013303  0.8333646399034563  0.3350991276329170
 
  0.00000000E+00  0.00000000E+00  0.00000000E+00
  0.00000000E+00  0.00000000E+00  0.00000000E+00
  0.00000000E+00  0.00000000E+00  0.00000000E+00
  0.00000000E+00  0.00000000E+00  0.00000000E+00
  0.00000000E+00  0.00000000E+00  0.00000000E+00
  0.00000000E+00  0.00000000E+00  0.00000000E+00
  0.00000000E+00  0.00000000E+00  0.00000000E+00
  0.00000000E+00  0.00000000E+00  0.00000000E+00
  0.00000000E+00  0.00000000E+00  0.00000000E+00
  0.00000000E+00  0.00000000E+00  0.00000000E+00
  0.00000000E+00  0.00000000E+00  0.00000000E+00
  0.00000000E+00  0.00000000E+00  0.00000000E+00
  0.00000000E+00  0.00000000E+00  0.00000000E+00
  0.00000000E+00  0.00000000E+00  0.00000000E+00
  0.00000000E+00  0.00000000E+00  0.00000000E+00
