Graphene-BC3 Hollow with lattice paramet
   1.00000000000000     
     4.3777584161303364    2.5274999999999999    0.0000000000000000
    -4.3777584161303364    2.5274999999999999    0.0000000000000000
     0.0000000000000000    0.0000000000000000   15.0000000000000000
   B    C 
     2    14
Direct
  0.3382615288735701  0.6691304046908600  0.1004175756610944
  0.6715982710486950  0.3357978142015981  0.1001036251738069
  0.1644821421727393  0.3215676882439077  0.1001094152378298
  0.3239544802455408  0.1619764784553419  0.1001177694626077
  0.1644822179723908  0.8429114944235576  0.1001094862315116
  0.8454119250082283  0.1619753691145765  0.1001104357945782
  0.6858193905984822  0.8429083354581099  0.1001022223711589
  0.8454128358567691  0.6834363835017055  0.1001105665048983
  0.3334239167639688  0.1667122844417886  0.3254366934247303
  0.5001117888650122  0.0001231555731001  0.3254135855060570
  0.3334028315618827  0.6667017862872152  0.3251285861917385
  0.5001118311339692  0.4999896851361081  0.3254135940744594
  0.8333972312957354  0.1667138648874812  0.3254319930859734
  0.0000727359899847  0.0000368262399631  0.3254148989116294
  0.8333972546724362  0.6666840706160381  0.3254320009520293
  0.9999849512739288  0.4999930253953438  0.3254142180825693
 
  0.00000000E+00  0.00000000E+00  0.00000000E+00
  0.00000000E+00  0.00000000E+00  0.00000000E+00
  0.00000000E+00  0.00000000E+00  0.00000000E+00
  0.00000000E+00  0.00000000E+00  0.00000000E+00
  0.00000000E+00  0.00000000E+00  0.00000000E+00
  0.00000000E+00  0.00000000E+00  0.00000000E+00
  0.00000000E+00  0.00000000E+00  0.00000000E+00
  0.00000000E+00  0.00000000E+00  0.00000000E+00
  0.00000000E+00  0.00000000E+00  0.00000000E+00
  0.00000000E+00  0.00000000E+00  0.00000000E+00
  0.00000000E+00  0.00000000E+00  0.00000000E+00
  0.00000000E+00  0.00000000E+00  0.00000000E+00
  0.00000000E+00  0.00000000E+00  0.00000000E+00
  0.00000000E+00  0.00000000E+00  0.00000000E+00
  0.00000000E+00  0.00000000E+00  0.00000000E+00
  0.00000000E+00  0.00000000E+00  0.00000000E+00
