Graphene-BC3 Bridge with lattice paramet
   1.00000000000000     
     4.3682321366887082    2.5219999999999998    0.0000000000000000
    -4.3682321366887082    2.5219999999999998    0.0000000000000000
     0.0000000000000000    0.0000000000000000   15.0000000000000000
    B    C 
    2    6
Direct
  0.3167047955107790  0.6920004280871298  0.1096259355019133
  0.6501862527028048  0.3585518017606828  0.1094365130821534
  0.1431951621756379  0.3445950995817706  0.1096524125536708
  0.3026472623191526  0.1849284230976999  0.1091541837892884
  0.1429826538524410  0.8657163755500802  0.1089263249816275
  0.8238415190243790  0.1847884777643166  0.1098936920301282
  0.6641416765113942  0.8655893287375426  0.1096038628199671
  0.8238772416736662  0.7060881035330885  0.1091069819910107
