Graphene-B4C3 Top with lattice parameter
   1.00000000000000     
     4.1837687256826230    2.4155000000000002    0.0000000000000000
    -4.1837687256826230    2.4155000000000002    0.0000000000000000
     0.0000000000000000    0.0000000000000000   15.0000000000000000
   B    C 
     4    11
Direct
  0.0040472242398343  0.0026949530223025  0.1023014409763565
  0.3592191174750826  0.0029542803385726  0.1003967214937139
  0.0037775858749925  0.3575964222614092  0.1003979340142792
  0.6491370762990574  0.6475184854715754  0.1003931871870531
  0.3278947328987418  0.3262769227903325  0.1005475923315431
  0.6804524551697531  0.0029514076786374  0.1005493648357744
  0.0037780647701702  0.6788312663168180  0.1005477119342382
  0.0001421306949183  0.5000688529352033  0.3348017313660840
  0.1667934385755906  0.3334580181301592  0.3348365654301259
  0.0001236277605810  0.0000754717119920  0.3347589482281876
  0.1668347232018751  0.8334064876006145  0.3348409542622092
  0.5001328518579886  0.5001042544438897  0.3348044647329147
  0.6667900497492699  0.3334103749869192  0.3346984212580244
  0.5000960280491906  0.0000569916776204  0.3348005428547054
  0.6667415600496478  0.8333631439672785  0.3348370857614736
 
  0.00000000E+00  0.00000000E+00  0.00000000E+00
  0.00000000E+00  0.00000000E+00  0.00000000E+00
  0.00000000E+00  0.00000000E+00  0.00000000E+00
  0.00000000E+00  0.00000000E+00  0.00000000E+00
  0.00000000E+00  0.00000000E+00  0.00000000E+00
  0.00000000E+00  0.00000000E+00  0.00000000E+00
  0.00000000E+00  0.00000000E+00  0.00000000E+00
  0.00000000E+00  0.00000000E+00  0.00000000E+00
  0.00000000E+00  0.00000000E+00  0.00000000E+00
  0.00000000E+00  0.00000000E+00  0.00000000E+00
  0.00000000E+00  0.00000000E+00  0.00000000E+00
  0.00000000E+00  0.00000000E+00  0.00000000E+00
  0.00000000E+00  0.00000000E+00  0.00000000E+00
  0.00000000E+00  0.00000000E+00  0.00000000E+00
  0.00000000E+00  0.00000000E+00  0.00000000E+00
