Graphene-Borophene Hollow 2 with lattice
   1.00000000000000     
     4.3128065108465030    2.4899999999999993    0.0000000000000000
    -4.3128065108465030    2.4899999999999993    0.0000000000000000
     0.0000000000000000    0.0000000000000000   15.0000000000000000
   B    C 
     8     8
Direct
  0.6695055575749909 -0.0000587859593714  0.1669611559369959
  0.3304346564656411 -0.0000587859593714  0.1669611559369959
  0.0000587859593714  0.3304934424250124  0.1669611559369959
  0.0000587859593714  0.6695643435343612  0.1669611559369959
  0.3304346564656411  0.3304934424250125  0.1669611559369959
  0.6695055575749909  0.6695643435343612  0.1669611559369959
  0.6666659999999993  0.3333330000000032  0.1612602369908138
  0.3333330000000032  0.6666659999999993  0.1733537168968271
  0.3333532202124639  0.1666766101062390  0.4035352139569321
  0.5000222370707339  0.0000444741414668  0.4036105673568172
  0.3333326666666636  0.6666663333333389  0.4035565882318258
  0.5000222370707339  0.4999767629292695  0.4036105673568172
  0.8333223898937632  0.1666766101062390  0.4035352139569321
  0.9999996666666675  0.9999993333333350  0.4034251783173016
  0.8333223898937632  0.6666457797875388  0.4035352139569321
 -0.0000454741414643  0.4999767629292693  0.4036105673568172
 
  0.00000000E+00  0.00000000E+00  0.00000000E+00
  0.00000000E+00  0.00000000E+00  0.00000000E+00
  0.00000000E+00  0.00000000E+00  0.00000000E+00
  0.00000000E+00  0.00000000E+00  0.00000000E+00
  0.00000000E+00  0.00000000E+00  0.00000000E+00
  0.00000000E+00  0.00000000E+00  0.00000000E+00
  0.00000000E+00  0.00000000E+00  0.00000000E+00
  0.00000000E+00  0.00000000E+00  0.00000000E+00
  0.00000000E+00  0.00000000E+00  0.00000000E+00
  0.00000000E+00  0.00000000E+00  0.00000000E+00
  0.00000000E+00  0.00000000E+00  0.00000000E+00
  0.00000000E+00  0.00000000E+00  0.00000000E+00
  0.00000000E+00  0.00000000E+00  0.00000000E+00
  0.00000000E+00  0.00000000E+00  0.00000000E+00
  0.00000000E+00  0.00000000E+00  0.00000000E+00
  0.00000000E+00  0.00000000E+00  0.00000000E+00
