Graphene-B4C3 Top with lattice parameter
   1.00000000000000     
     4.2132135894112936    2.4325000000000001    0.0000000000000000
    -4.2132135894112936    2.4325000000000001    0.0000000000000000
     0.0000000000000000    0.0000000000000000   15.0000000000000000
   B    C 
     4    11
Direct
  0.0040431855306270  0.0026893439614171  0.1009622263742164
  0.3592251648946879  0.0029905416850518  0.1003912090060274
  0.0037350180831914  0.3575637174297747  0.1003919209685974
  0.6491599389401350  0.6475050290532426  0.1003882525946557
  0.3275968261143872  0.3259403634012161  0.1003861777379408
  0.6807838156242250  0.0029896480711168  0.1003839564390281
  0.0037356448608985  0.6791232052793972  0.1003805628068648
  0.0001435775571343  0.5000682120556533  0.3350321967259031
  0.1667942888929348  0.3334602165146546  0.3350662584076159
  0.0001272609585621  0.0000782804106870  0.3349947298867766
  0.1668396575056045  0.8334114704254819  0.3350699601572764
  0.5001397645299093  0.5001083255435426  0.3350349292027640
  0.6667932772460708  0.3334131882462048  0.3349333117218407
  0.5000980045630595  0.0000617792897516  0.3350306251084826
  0.6667452413652671  0.8333640119661319  0.3350663495286919
 
  0.00000000E+00  0.00000000E+00  0.00000000E+00
  0.00000000E+00  0.00000000E+00  0.00000000E+00
  0.00000000E+00  0.00000000E+00  0.00000000E+00
  0.00000000E+00  0.00000000E+00  0.00000000E+00
  0.00000000E+00  0.00000000E+00  0.00000000E+00
  0.00000000E+00  0.00000000E+00  0.00000000E+00
  0.00000000E+00  0.00000000E+00  0.00000000E+00
  0.00000000E+00  0.00000000E+00  0.00000000E+00
  0.00000000E+00  0.00000000E+00  0.00000000E+00
  0.00000000E+00  0.00000000E+00  0.00000000E+00
  0.00000000E+00  0.00000000E+00  0.00000000E+00
  0.00000000E+00  0.00000000E+00  0.00000000E+00
  0.00000000E+00  0.00000000E+00  0.00000000E+00
  0.00000000E+00  0.00000000E+00  0.00000000E+00
  0.00000000E+00  0.00000000E+00  0.00000000E+00
