Graphene-BC3 Bridge with lattice paramet
   1.00000000000000     
     4.3682321366887082    2.5219999999999998    0.0000000000000000
    -4.3682321366887082    2.5219999999999998    0.0000000000000000
     0.0000000000000000    0.0000000000000000   15.0000000000000000
   B    C 
     2    14
Direct
  0.3035177697886828  0.7052788980311466  0.1098547190918033
  0.6368914328399016  0.3719526984147419  0.1096288129287359
  0.1298335565901974  0.3578719726575155  0.1097149632941592
  0.2893317734524478  0.1982236084386257  0.1095299744676332
  0.1298114317085719  0.8790205642018207  0.1094690288388859
  0.8105665143682939  0.1982019048602291  0.1098222792284443
  0.6509667173331636  0.8790169017148609  0.1096902434919553
  0.8105964696314953  0.7194682929552754  0.1095156898781222
  0.2848085136221637  0.2138501494305866  0.3348587576501774
  0.4514896446535401  0.0472701602985745  0.3348498325813464
  0.2847872673513668  0.7138886171204738  0.3345631030397818
  0.4515255963973629  0.5471484592377801  0.3348443737329430
  0.7847911401735274  0.2138910951250762  0.3348388692587562
  0.9514986860711332  0.0471841146029168  0.3348499267979453
  0.7848310302467933  0.7138704957928435  0.3348536819320542
  0.9514111224380638  0.5471874004508579  0.3348490771206222
 
  0.00000000E+00  0.00000000E+00  0.00000000E+00
  0.00000000E+00  0.00000000E+00  0.00000000E+00
  0.00000000E+00  0.00000000E+00  0.00000000E+00
  0.00000000E+00  0.00000000E+00  0.00000000E+00
  0.00000000E+00  0.00000000E+00  0.00000000E+00
  0.00000000E+00  0.00000000E+00  0.00000000E+00
  0.00000000E+00  0.00000000E+00  0.00000000E+00
  0.00000000E+00  0.00000000E+00  0.00000000E+00
  0.00000000E+00  0.00000000E+00  0.00000000E+00
  0.00000000E+00  0.00000000E+00  0.00000000E+00
  0.00000000E+00  0.00000000E+00  0.00000000E+00
  0.00000000E+00  0.00000000E+00  0.00000000E+00
  0.00000000E+00  0.00000000E+00  0.00000000E+00
  0.00000000E+00  0.00000000E+00  0.00000000E+00
  0.00000000E+00  0.00000000E+00  0.00000000E+00
  0.00000000E+00  0.00000000E+00  0.00000000E+00
