Graphene-BC3 Bridge with lattice paramet
   1.00000000000000     
     4.3682321366887082    2.5219999999999998    0.0000000000000000
    -4.3682321366887082    2.5219999999999998    0.0000000000000000
     0.0000000000000000    0.0000000000000000   15.0000000000000000
   B    C 
     2    14
Direct
  0.3167047955107790  0.6920004280871298  0.1096259355019133
  0.6501862527028048  0.3585518017606828  0.1094365130821534
  0.1431951621756379  0.3445950995817706  0.1096524125536708
  0.3026472623191526  0.1849284230976999  0.1091541837892884
  0.1429826538524410  0.8657163755500802  0.1089263249816275
  0.8238415190243790  0.1847884777643166  0.1098936920301282
  0.6641416765113942  0.8655893287375426  0.1096038628199671
  0.8238772416736662  0.7060881035330885  0.1091069819910107
  0.2715315942277602  0.2271260071459467  0.3351493941890962
  0.4381559962581461  0.0606279378492913  0.3350945897762972
  0.2715294481401033  0.7272433655763100  0.3347740266836683
  0.4382623238042540  0.5605006587742504  0.3349830494398089
  0.7715695233427288  0.2271993032790625  0.3349791784188487
  0.9382481777067945  0.0605192570665203  0.3351205830359611
  0.7716458602071250  0.7272415150273873  0.3351471498717763
  0.9381391792095374  0.5606092505022428  0.3350854551681482
 
  0.00000000E+00  0.00000000E+00  0.00000000E+00
  0.00000000E+00  0.00000000E+00  0.00000000E+00
  0.00000000E+00  0.00000000E+00  0.00000000E+00
  0.00000000E+00  0.00000000E+00  0.00000000E+00
  0.00000000E+00  0.00000000E+00  0.00000000E+00
  0.00000000E+00  0.00000000E+00  0.00000000E+00
  0.00000000E+00  0.00000000E+00  0.00000000E+00
  0.00000000E+00  0.00000000E+00  0.00000000E+00
  0.00000000E+00  0.00000000E+00  0.00000000E+00
  0.00000000E+00  0.00000000E+00  0.00000000E+00
  0.00000000E+00  0.00000000E+00  0.00000000E+00
  0.00000000E+00  0.00000000E+00  0.00000000E+00
  0.00000000E+00  0.00000000E+00  0.00000000E+00
  0.00000000E+00  0.00000000E+00  0.00000000E+00
  0.00000000E+00  0.00000000E+00  0.00000000E+00
  0.00000000E+00  0.00000000E+00  0.00000000E+00
