Graphene-B4C3 Top with lattice parameter
   1.00000000000000     
     4.1967591067393899    2.4230000000000000    0.0000000000000000
    -4.1967591067393899    2.4230000000000000    0.0000000000000000
     0.0000000000000000    0.0000000000000000   15.0000000000000000
   B    C 
     4    11
Direct
  0.0041804353856701  0.0027524659758477  0.1192273997204872
  0.3558473320313035  0.0030381326752664  0.0978292471649152
  0.0039537187848341  0.3541716681466313  0.0978313366258045
  0.6527515646666719  0.6511285016148776  0.0978206359075817
  0.3247117663897239  0.3229935165431921  0.1002927911449857
  0.6839646677649350  0.0031127468529226  0.1002712929591286
  0.0038785790578780  0.6822347024502194  0.1002639666268693
  0.0001293247244765  0.4999744437836723  0.3333444765477737
  0.1668731209586928  0.3339509961438093  0.3334056285187122
  0.9999992956042677  0.9999936639364730  0.3332343470310057
  0.1670703883337944  0.8331245047876807  0.3334085529741812
  0.5000409494649546  0.5001676014494818  0.3333473928888286
  0.6666663066121450  0.3333379388453592  0.3332863253641163
  0.4998467861236136  0.9998687257982526  0.3333439918797483
  0.6660464307637315  0.8329177243296394  0.3334052813125516
 
  0.00000000E+00  0.00000000E+00  0.00000000E+00
  0.00000000E+00  0.00000000E+00  0.00000000E+00
  0.00000000E+00  0.00000000E+00  0.00000000E+00
  0.00000000E+00  0.00000000E+00  0.00000000E+00
  0.00000000E+00  0.00000000E+00  0.00000000E+00
  0.00000000E+00  0.00000000E+00  0.00000000E+00
  0.00000000E+00  0.00000000E+00  0.00000000E+00
  0.00000000E+00  0.00000000E+00  0.00000000E+00
  0.00000000E+00  0.00000000E+00  0.00000000E+00
  0.00000000E+00  0.00000000E+00  0.00000000E+00
  0.00000000E+00  0.00000000E+00  0.00000000E+00
  0.00000000E+00  0.00000000E+00  0.00000000E+00
  0.00000000E+00  0.00000000E+00  0.00000000E+00
  0.00000000E+00  0.00000000E+00  0.00000000E+00
  0.00000000E+00  0.00000000E+00  0.00000000E+00
