Graphene-BC3 Hollow with lattice paramet
   1.00000000000000     
     4.3561077810357256    2.5149999999999997    0.0000000000000000
    -4.3561077810357256    2.5149999999999997    0.0000000000000000
     0.0000000000000000    0.0000000000000000   15.0000000000000000
   B    C 
     2    14
Direct
  0.3382762359499581  0.6691374844406928  0.1005085838504238
  0.6716096811710631  0.3358038688469262  0.1001535023051098
  0.1646531697118149  0.3218945938365059  0.1002046083568153
  0.3242906887278218  0.1621426112649418  0.1002055206987568
  0.1646527238975581  0.8427572708905505  0.1002042802206091
  0.8452686350012655  0.1621420100308267  0.1001873278325286
  0.6855109903773522  0.8427544916261056  0.1001865708714964
  0.8452701238952021  0.6831245154539676  0.1001870135076606
  0.3334117941450099  0.1667058311328047  0.3253540120853507
  0.5000935526382876  0.0001127338631381  0.3253389180611477
  0.3333926726367926  0.6666962886309391  0.3250370280116861
  0.5000935675066339  0.4999835559452488  0.3253389322483365
  0.8333875301654208  0.1667072838545968  0.3253489945477931
  0.0000556297906736  0.0000291821474455  0.3253225934511390
  0.8333875642491837  0.6666801814249715  0.3253490044189563
  0.9999707734692964  0.4999867632770326  0.3253397761988627
 
  0.00000000E+00  0.00000000E+00  0.00000000E+00
  0.00000000E+00  0.00000000E+00  0.00000000E+00
  0.00000000E+00  0.00000000E+00  0.00000000E+00
  0.00000000E+00  0.00000000E+00  0.00000000E+00
  0.00000000E+00  0.00000000E+00  0.00000000E+00
  0.00000000E+00  0.00000000E+00  0.00000000E+00
  0.00000000E+00  0.00000000E+00  0.00000000E+00
  0.00000000E+00  0.00000000E+00  0.00000000E+00
  0.00000000E+00  0.00000000E+00  0.00000000E+00
  0.00000000E+00  0.00000000E+00  0.00000000E+00
  0.00000000E+00  0.00000000E+00  0.00000000E+00
  0.00000000E+00  0.00000000E+00  0.00000000E+00
  0.00000000E+00  0.00000000E+00  0.00000000E+00
  0.00000000E+00  0.00000000E+00  0.00000000E+00
  0.00000000E+00  0.00000000E+00  0.00000000E+00
  0.00000000E+00  0.00000000E+00  0.00000000E+00
