Graphene-BC3 Hollow with lattice paramet
   1.00000000000000     
     4.3682321366887082    2.5219999999999998    0.0000000000000000
    -4.3682321366887082    2.5219999999999998    0.0000000000000000
     0.0000000000000000    0.0000000000000000   15.0000000000000000
   B    C 
     2    14
Direct
  0.3382288160408878  0.6691121552362866  0.1134141350388810
  0.6715655307589816  0.3357812064842882  0.1130929726023400
  0.1645206220164984  0.3216912436268741  0.1130999049235424
  0.3240667783189921  0.1620306315136589  0.1131084985765912
  0.1645191979855353  0.8428242410618998  0.1131002908480470
  0.8453087775595085  0.1620278800009292  0.1131020105120907
  0.6856475503064232  0.8428209398620994  0.1130946140876043
  0.8453086682322446  0.6832742858534323  0.1131024250769694
  0.3334567620496044  0.1667304558436913  0.3381119751295706
  0.5001430302982748  0.0001381477591020  0.3380883832622960
  0.3334345759468619  0.6667193436521495  0.3378035575383641
  0.5001430469823896  0.5000089734433276  0.3380883838278666
  0.8334283875224046  0.1667318645003108  0.3381073649305255
  0.0001050845044105  0.0000546052542210  0.3380890842932343
  0.8334283378155095  0.6667005510201920  0.3381073739013176
  0.0000201669948078  0.5000121415542328  0.3380890254507595
 
  0.00000000E+00  0.00000000E+00  0.00000000E+00
  0.00000000E+00  0.00000000E+00  0.00000000E+00
  0.00000000E+00  0.00000000E+00  0.00000000E+00
  0.00000000E+00  0.00000000E+00  0.00000000E+00
  0.00000000E+00  0.00000000E+00  0.00000000E+00
  0.00000000E+00  0.00000000E+00  0.00000000E+00
  0.00000000E+00  0.00000000E+00  0.00000000E+00
  0.00000000E+00  0.00000000E+00  0.00000000E+00
  0.00000000E+00  0.00000000E+00  0.00000000E+00
  0.00000000E+00  0.00000000E+00  0.00000000E+00
  0.00000000E+00  0.00000000E+00  0.00000000E+00
  0.00000000E+00  0.00000000E+00  0.00000000E+00
  0.00000000E+00  0.00000000E+00  0.00000000E+00
  0.00000000E+00  0.00000000E+00  0.00000000E+00
  0.00000000E+00  0.00000000E+00  0.00000000E+00
  0.00000000E+00  0.00000000E+00  0.00000000E+00
