Graphene-Borophene Top with lattice para
   1.00000000000000     
     4.3569738064395107    2.5154999999999998    0.0000000000000000
    -4.3569738064395107    2.5154999999999998    0.0000000000000000
     0.0000000000000000    0.0000000000000000   15.0000000000000000
   B    C 
     8     8
Direct
  0.6691638032702311 -0.0000208544116218  0.1224742983548652
  0.3308143423181497 -0.0000208544116218  0.1224742983548652
  0.0000208544116218  0.3308351967297716  0.1224742983548652
  0.0000208544116218  0.6691846576818526  0.1224742983548652
  0.3308143423181497  0.3308351967297716  0.1224742983548652
  0.6691638032702311  0.6691846576818526  0.1224742983548652
  0.6666659999999993  0.3333330000000032  0.1306225104650598
  0.3333330000000032  0.6666659999999993  0.1203796396848964
  0.1681739019970641  0.3363488039941329  0.4444910324236288
  0.3362550081070496  0.1681270040535225  0.4445067941455674
  0.1681739019970641  0.8318250980029384  0.4444910324236288
  0.3333330000000032  0.6666659999999993  0.4444881221318391
  0.6666659999999993  0.3333330000000032  0.4445371245481171
  0.8318719959464799  0.1681270040535225  0.4445067941455674
  0.6636501960058697  0.8318250980029384  0.4444910324236288
  0.8318719959464799  0.6637439918929527  0.4445067941455674
 
  0.00000000E+00  0.00000000E+00  0.00000000E+00
  0.00000000E+00  0.00000000E+00  0.00000000E+00
  0.00000000E+00  0.00000000E+00  0.00000000E+00
  0.00000000E+00  0.00000000E+00  0.00000000E+00
  0.00000000E+00  0.00000000E+00  0.00000000E+00
  0.00000000E+00  0.00000000E+00  0.00000000E+00
  0.00000000E+00  0.00000000E+00  0.00000000E+00
  0.00000000E+00  0.00000000E+00  0.00000000E+00
  0.00000000E+00  0.00000000E+00  0.00000000E+00
  0.00000000E+00  0.00000000E+00  0.00000000E+00
  0.00000000E+00  0.00000000E+00  0.00000000E+00
  0.00000000E+00  0.00000000E+00  0.00000000E+00
  0.00000000E+00  0.00000000E+00  0.00000000E+00
  0.00000000E+00  0.00000000E+00  0.00000000E+00
  0.00000000E+00  0.00000000E+00  0.00000000E+00
  0.00000000E+00  0.00000000E+00  0.00000000E+00
