Graphene-Borophene Bridge with lattice p
   1.00000000000000     
     4.3387872729600367    2.5049999999999999    0.0000000000000000
    -4.3387872729600367    2.5049999999999999    0.0000000000000000
     0.0000000000000000    0.0000000000000000   15.0000000000000000
   B    C 
     8     8
Direct
  0.6697503971326333 -0.0000571525928262  0.1641566388400928
  0.3305826569852783  0.0000418959088470  0.1643530591859204
  0.0000571525928262  0.3302486028673693  0.1641566388400928
 -0.0000418959088470  0.6694163430147242  0.1643530591859204
  0.3306341665007412  0.3305519750976657  0.1643828062460556
  0.6694470249023368  0.6693648334992611  0.1643828062460556
  0.6666311297936056  0.3333678702063967  0.1784725052565417
  0.3332760396953070  0.6667229603046955  0.1648883810385211
  0.2530611053493644  0.2532635443292946  0.4033762677185633
  0.4187675080551561  0.0823237862429227  0.4024584761195520
  0.2503956143686683  0.7496033856313342  0.4018468705728034
  0.4158953947824489  0.5841036052175536  0.4028413196884726
  0.7480451580012715  0.2519538419987309  0.4030860120674568
  0.9157475449881246  0.0842514550118778  0.4039437484892074
  0.7467354556707080  0.7469378946506381  0.4033762677185633
  0.9176752137570798  0.5812314919448465  0.4024584761195520
 
  0.00000000E+00  0.00000000E+00  0.00000000E+00
  0.00000000E+00  0.00000000E+00  0.00000000E+00
  0.00000000E+00  0.00000000E+00  0.00000000E+00
  0.00000000E+00  0.00000000E+00  0.00000000E+00
  0.00000000E+00  0.00000000E+00  0.00000000E+00
  0.00000000E+00  0.00000000E+00  0.00000000E+00
  0.00000000E+00  0.00000000E+00  0.00000000E+00
  0.00000000E+00  0.00000000E+00  0.00000000E+00
  0.00000000E+00  0.00000000E+00  0.00000000E+00
  0.00000000E+00  0.00000000E+00  0.00000000E+00
  0.00000000E+00  0.00000000E+00  0.00000000E+00
  0.00000000E+00  0.00000000E+00  0.00000000E+00
  0.00000000E+00  0.00000000E+00  0.00000000E+00
  0.00000000E+00  0.00000000E+00  0.00000000E+00
  0.00000000E+00  0.00000000E+00  0.00000000E+00
  0.00000000E+00  0.00000000E+00  0.00000000E+00
