Graphene-Borophene Bridge with lattice p
   1.00000000000000     
     4.3387881389854410    2.5050005000000000    0.0000000000000000
    -4.3387881389854410    2.5050005000000000    0.0000000000000000
     0.0000000000000000    0.0000000000000000   15.0000000000000000
   B    C 
     8     8
Direct
  0.6693994206004213 -0.0000001155715419  0.1000390218110171
  0.3305998152403041 -0.0000000685315443  0.1000391465362529
  0.0000001155715419  0.3305995793995812  0.1000390218110171
  0.0000000685315443  0.6693991847596985  0.1000391465362529
  0.3305996611360430  0.3305996119958895  0.1000391657044601
  0.6693993880041130  0.6693993388639595  0.1000391657044601
  0.6666660102903261  0.3333329897096764  0.0992693402509653
  0.3333327281802933  0.6666662718197092  0.1008185114942279
  0.2499999909525341  0.2500011593775025  0.4690266927705660
  0.4166673847003778  0.0833318071883130  0.4690260004518536
  0.2499989961593416  0.7500000038406609  0.4690255219444863
  0.4166664234201420  0.5833325765798605  0.4690262989782356
  0.7499981733323106  0.2500008266676921  0.4690264747194968
  0.9166664571132207  0.0833325428867818  0.4690271313976611
  0.7499978406225001  0.7499990090474684  0.4690266927705660
  0.9166671928116895  0.5833316152996247  0.4690260004518536
 
  0.00000000E+00  0.00000000E+00  0.00000000E+00
  0.00000000E+00  0.00000000E+00  0.00000000E+00
  0.00000000E+00  0.00000000E+00  0.00000000E+00
  0.00000000E+00  0.00000000E+00  0.00000000E+00
  0.00000000E+00  0.00000000E+00  0.00000000E+00
  0.00000000E+00  0.00000000E+00  0.00000000E+00
  0.00000000E+00  0.00000000E+00  0.00000000E+00
  0.00000000E+00  0.00000000E+00  0.00000000E+00
  0.00000000E+00  0.00000000E+00  0.00000000E+00
  0.00000000E+00  0.00000000E+00  0.00000000E+00
  0.00000000E+00  0.00000000E+00  0.00000000E+00
  0.00000000E+00  0.00000000E+00  0.00000000E+00
  0.00000000E+00  0.00000000E+00  0.00000000E+00
  0.00000000E+00  0.00000000E+00  0.00000000E+00
  0.00000000E+00  0.00000000E+00  0.00000000E+00
  0.00000000E+00  0.00000000E+00  0.00000000E+00
