BC3 with lattice parameter 5.169        
   1.00000000000000     
     4.4764850000000003    2.5844999999999998    0.0000000000000000
    -4.4764850000000003    2.5844999999999998    0.0000000000000000
     0.0000000000000000    0.0000000000000000   15.0000000000000000
   B    C 
     2     6
Direct
  0.3383324046207755  0.6691629519428093  0.2500000000000000
  0.6716669944946407  0.3358348372134335  0.2500000000000000
  0.1611675651843613  0.3148557109415496  0.2500000000000000
  0.3173581198702730  0.1586848662014666  0.2500000000000000
  0.1611901527050051  0.8463264379441909  0.2500000000000000
  0.8488080721885490  0.1586721879925614  0.2500000000000000
  0.6926417242529599  0.8463148775522147  0.2500000000000000
  0.8488309666834367  0.6901441302117726  0.2500000000000000
 
  0.00000000E+00  0.00000000E+00  0.00000000E+00
  0.00000000E+00  0.00000000E+00  0.00000000E+00
  0.00000000E+00  0.00000000E+00  0.00000000E+00
  0.00000000E+00  0.00000000E+00  0.00000000E+00
  0.00000000E+00  0.00000000E+00  0.00000000E+00
  0.00000000E+00  0.00000000E+00  0.00000000E+00
  0.00000000E+00  0.00000000E+00  0.00000000E+00
  0.00000000E+00  0.00000000E+00  0.00000000E+00
