Graphene-BC3 Hollow with lattice paramet
   1.00000000000000     
     4.3128056448211005    2.4899995000000001    0.0000000000000000
    -4.3128056448211005    2.4899995000000001    0.0000000000000000
     0.0000000000000000    0.0000000000000000   15.0000000000000000
   B    C 
     2    14
Direct
  0.3381574473864287  0.6690835021809269  0.1007666003013614
  0.6715006304550176  0.3357471014057745  0.1004444104583572
  0.1648483465181213  0.3224574809745756  0.1005342309529613
  0.3248031186828593  0.1623929436832515  0.1006160232233177
  0.1648533761752224  0.8423905864628540  0.1005416259410166
  0.8448442735209537  0.1624016348785945  0.1003781396029796
  0.6847847052152033  0.8423945370238598  0.1003094635134842
  0.8448498810766939  0.6824394600984576  0.1003855492996042
  0.3335186413760787  0.1667607883305874  0.3250931210068633
  0.5002084834296958  0.0001660671603001  0.3250604855956001
  0.3334980216258643  0.6667506412843087  0.3247770245523704
  0.5002085394916047  0.5000442064750540  0.3250605247950272
  0.8334918115404598  0.1667621603665782  0.3250858803796980
  0.0001733065589778  0.0000874622553602  0.3250680546207223
  0.8334918691645059  0.6667327218144015  0.3250859714166499
  0.0000928811156448  0.5000473722718113  0.3250595610066587
 
  0.00000000E+00  0.00000000E+00  0.00000000E+00
  0.00000000E+00  0.00000000E+00  0.00000000E+00
  0.00000000E+00  0.00000000E+00  0.00000000E+00
  0.00000000E+00  0.00000000E+00  0.00000000E+00
  0.00000000E+00  0.00000000E+00  0.00000000E+00
  0.00000000E+00  0.00000000E+00  0.00000000E+00
  0.00000000E+00  0.00000000E+00  0.00000000E+00
  0.00000000E+00  0.00000000E+00  0.00000000E+00
  0.00000000E+00  0.00000000E+00  0.00000000E+00
  0.00000000E+00  0.00000000E+00  0.00000000E+00
  0.00000000E+00  0.00000000E+00  0.00000000E+00
  0.00000000E+00  0.00000000E+00  0.00000000E+00
  0.00000000E+00  0.00000000E+00  0.00000000E+00
  0.00000000E+00  0.00000000E+00  0.00000000E+00
  0.00000000E+00  0.00000000E+00  0.00000000E+00
  0.00000000E+00  0.00000000E+00  0.00000000E+00
