Graphene-B4C3 Hollow 2 with lattice para
   1.00000000000000     
     4.2002232083545250    2.4249999999999989    0.0000000000000000
    -4.2002232083545250    2.4249999999999989    0.0000000000000000
     0.0000000000000000    0.0000000000000000   15.0000000000000000
   B    C 
     4    11
Direct
  0.0043877782863435  0.0029153618740799  0.0997089888389928
  0.3595390597079802  0.0029190622117330  0.1010158688989872
  0.0043932015406336  0.3580655330260117  0.1010178947906881
  0.6492435850118324  0.6477694242605010  0.1010201053585201
  0.3280349254687962  0.3265561526122627  0.1008031112047866
  0.6807638788210127  0.0029281072980844  0.1008002078655458
  0.0044066977346554  0.6792911421432760  0.1008000935233722
  0.1664616327822868  0.3332052239010472  0.3382854576151665
  0.3331470628774352  0.1665188904482759  0.3382872869056180
  0.1665028343071466  0.8332280740796006  0.3382896466808140
  0.3331479656071875  0.6665411312809207  0.3381790701852833
  0.6664825272551632  0.3332057234703287  0.3381789487825827
  0.8331690872992521  0.1665603048294923  0.3382891403776548
  0.6664835484689365  0.8331882726783654  0.3382855984778459
  0.8331302148313452  0.6665415958860321  0.3382845804941690
 
  0.00000000E+00  0.00000000E+00  0.00000000E+00
  0.00000000E+00  0.00000000E+00  0.00000000E+00
  0.00000000E+00  0.00000000E+00  0.00000000E+00
  0.00000000E+00  0.00000000E+00  0.00000000E+00
  0.00000000E+00  0.00000000E+00  0.00000000E+00
  0.00000000E+00  0.00000000E+00  0.00000000E+00
  0.00000000E+00  0.00000000E+00  0.00000000E+00
  0.00000000E+00  0.00000000E+00  0.00000000E+00
  0.00000000E+00  0.00000000E+00  0.00000000E+00
  0.00000000E+00  0.00000000E+00  0.00000000E+00
  0.00000000E+00  0.00000000E+00  0.00000000E+00
  0.00000000E+00  0.00000000E+00  0.00000000E+00
  0.00000000E+00  0.00000000E+00  0.00000000E+00
  0.00000000E+00  0.00000000E+00  0.00000000E+00
  0.00000000E+00  0.00000000E+00  0.00000000E+00
