Graphene-Borophene Bridge with lattice p
   1.00000000000000     
     4.3154045870578575    2.4914999999999998    0.0000000000000000
    -4.3154045870578575    2.4914999999999998    0.0000000000000000
     0.0000000000000000    0.0000000000000000   15.0000000000000000
   B    C 
     8     8
Direct
  0.6723284010238364 -0.0036661941214522  0.1672705251757333
  0.3351599715005970 -0.0035873574556043  0.1672627157889743
  0.0036661941214522  0.3276705989761665  0.1672705251757333
  0.0035873574556043  0.6648390284994058  0.1672627157889743
  0.3348917038112075  0.3276582397199153  0.1662506759316535
  0.6723407602800874  0.6651072961887950  0.1662506759316535
  0.6699386676369374  0.3300603323630641  0.1545818747363901
  0.3367037268014715  0.6632952731985303  0.1793617538579158
  0.2464247242833275  0.2535660789778491  0.4020766953828258
  0.4131114469962590  0.0869458131951180  0.4021700539192674
  0.2464242008197474  0.7535747991802548  0.4021648137377766
  0.4131082477684705  0.5868907522315323  0.4021253991263645
  0.7464027683805625  0.2535962316194401  0.4022011546203072
  0.9130853879601039  0.0869136120398985  0.4020370048577093
  0.7464329210221535  0.7535742757166746  0.4020766953828258
  0.9130531868048851  0.5868875530037436  0.4021700539192674
 
  0.00000000E+00  0.00000000E+00  0.00000000E+00
  0.00000000E+00  0.00000000E+00  0.00000000E+00
  0.00000000E+00  0.00000000E+00  0.00000000E+00
  0.00000000E+00  0.00000000E+00  0.00000000E+00
  0.00000000E+00  0.00000000E+00  0.00000000E+00
  0.00000000E+00  0.00000000E+00  0.00000000E+00
  0.00000000E+00  0.00000000E+00  0.00000000E+00
  0.00000000E+00  0.00000000E+00  0.00000000E+00
  0.00000000E+00  0.00000000E+00  0.00000000E+00
  0.00000000E+00  0.00000000E+00  0.00000000E+00
  0.00000000E+00  0.00000000E+00  0.00000000E+00
  0.00000000E+00  0.00000000E+00  0.00000000E+00
  0.00000000E+00  0.00000000E+00  0.00000000E+00
  0.00000000E+00  0.00000000E+00  0.00000000E+00
  0.00000000E+00  0.00000000E+00  0.00000000E+00
  0.00000000E+00  0.00000000E+00  0.00000000E+00
