Graphene-BC3 Hollow with lattice paramet
   1.00000000000000     
     4.3734282891114136    2.5249999999999995    0.0000000000000000
    -4.3734282891114136    2.5249999999999995    0.0000000000000000
     0.0000000000000000    0.0000000000000000   15.0000000000000000
   B    C 
     2    14
Direct
  0.3383107174972673  0.6691573316665983  0.1003195723887069
  0.6716467314637621  0.3358249188852850  0.0999782547409859
  0.1645702512656424  0.3216600677415964  0.1000284570439677
  0.3240705866885569  0.1620336057131845  0.1000362424992186
  0.1645688832510520  0.8429065787855030  0.1000285242394785
  0.8454298332843575  0.1620327353388870  0.1000297637589722
  0.6858048190116685  0.8428993028123595  0.1000221229177201
  0.8454326628494820  0.6833980388370070  0.1000295873868469
  0.3333726252198487  0.1666859926824164  0.3255238872390955
  0.5000586744734947  0.0000961879468034  0.3255039828616451
  0.3333528178813262  0.6666761478627387  0.3252250133312492
  0.5000586770111061  0.4999634129392549  0.3255039852860712
  0.8333477965092102  0.1666874703515673  0.3255191002460943
  0.0000199199485195  0.0000103930936846  0.3254941244547169
  0.8333478303828534  0.6666597584706995  0.3255191264270472
  0.9999325065951866  0.4999667235391090  0.3255049218448553
 
  0.00000000E+00  0.00000000E+00  0.00000000E+00
  0.00000000E+00  0.00000000E+00  0.00000000E+00
  0.00000000E+00  0.00000000E+00  0.00000000E+00
  0.00000000E+00  0.00000000E+00  0.00000000E+00
  0.00000000E+00  0.00000000E+00  0.00000000E+00
  0.00000000E+00  0.00000000E+00  0.00000000E+00
  0.00000000E+00  0.00000000E+00  0.00000000E+00
  0.00000000E+00  0.00000000E+00  0.00000000E+00
  0.00000000E+00  0.00000000E+00  0.00000000E+00
  0.00000000E+00  0.00000000E+00  0.00000000E+00
  0.00000000E+00  0.00000000E+00  0.00000000E+00
  0.00000000E+00  0.00000000E+00  0.00000000E+00
  0.00000000E+00  0.00000000E+00  0.00000000E+00
  0.00000000E+00  0.00000000E+00  0.00000000E+00
  0.00000000E+00  0.00000000E+00  0.00000000E+00
  0.00000000E+00  0.00000000E+00  0.00000000E+00
