Graphene-B4C3 Hollow_1 with lattice para
   1.00000000000000     
     4.1967591067393899    2.4230000000000000    0.0000000000000000
    -4.1967591067393899    2.4230000000000000    0.0000000000000000
     0.0000000000000000    0.0000000000000000   15.0000000000000000
    B   C
    4   3
Direct
  0.0300702853086501 -0.0205226472113327  0.1058243758035547
  0.3851355975670349 -0.0202792124252793  0.1002438679055239
  0.0300882658328013  0.3344893093825541  0.1002262527683518
  0.6753952792210328  0.6246546816058212  0.1002271262661826
  0.3538214362553193  0.3031096245336458  0.1007508064259141
  0.7067479869836762 -0.0203808376379735  0.1007120464369806
  0.0299156480714432  0.6558774823707627  0.1007784700559016


