Graphene-B4C3 Hollow 1 with lattice para
   1.00000000000000     
     4.1309411760517714    2.3849999999999998    0.0000000000000000
    -4.1309411760517714    2.3849999999999998    0.0000000000000000
     0.0000000000000000    0.0000000000000000   15.0000000000000000
   B    C 
     4    11
Direct
  0.0406469042276945 -0.0302736916791114  0.1118962065005281
  0.3953705366906917 -0.0294384748886170  0.0993132416820924
  0.0404072032919960  0.3238459602945210  0.0995392957081382
  0.6862340903357270  0.6158305004742026  0.0994980253452479
  0.3647994828609489  0.2939816724574524  0.1006584410984124
  0.7169374082828182 -0.0296480852777285  0.1012550482473786
  0.0404803687532158  0.6455943977548079  0.1007048867114620
  0.0791439602396355  0.4176104589047633  0.3373179916418564
  0.2458406388241630  0.2508937999922269  0.3374218344215630
  0.0792030803463663  0.9176637781950437  0.3372973753145876
  0.2458972845399311  0.7508832314253188  0.3374155025738715
  0.5791767407898261  0.4176295407022969  0.3373691666725843
  0.7458554161999208  0.2509109853446008  0.3372980515672740
  0.5791111993452905  0.9175583643981670  0.3374008086560509
  0.7457452408273242  0.7508360063465237  0.3373934571922739
 
  0.00000000E+00  0.00000000E+00  0.00000000E+00
  0.00000000E+00  0.00000000E+00  0.00000000E+00
  0.00000000E+00  0.00000000E+00  0.00000000E+00
  0.00000000E+00  0.00000000E+00  0.00000000E+00
  0.00000000E+00  0.00000000E+00  0.00000000E+00
  0.00000000E+00  0.00000000E+00  0.00000000E+00
  0.00000000E+00  0.00000000E+00  0.00000000E+00
  0.00000000E+00  0.00000000E+00  0.00000000E+00
  0.00000000E+00  0.00000000E+00  0.00000000E+00
  0.00000000E+00  0.00000000E+00  0.00000000E+00
  0.00000000E+00  0.00000000E+00  0.00000000E+00
  0.00000000E+00  0.00000000E+00  0.00000000E+00
  0.00000000E+00  0.00000000E+00  0.00000000E+00
  0.00000000E+00  0.00000000E+00  0.00000000E+00
  0.00000000E+00  0.00000000E+00  0.00000000E+00
