Graphene-B4C3 Hollow 1 with lattice parameter 4.770 and distance 3.559
        1.0
        4.1309411760517714    2.3849999999999998    0.0000000000000000
       -4.1309411760517714    2.3849999999999998    0.0000000000000000
        0.0000000000000000    0.0000000000000000   15.0000000000000000
        B   C
        4   11
        Direct
        0.0041536073678543  0.0026721015370299  0.1203413379052876
        0.3569533512947416  0.0028550305604824  0.0974889342262841
        0.0042385768318738  0.3555069917146056  0.0974925637235273
        0.6514229529441167  0.6500655703952489  0.0974768786615599
        0.3280864628224336  0.3267193752228721  0.1003050777105869
        0.6802777482657802  0.0027808524732649  0.1002756210064604
        0.0041653004731970  0.6788380780964971  0.1002655867662980
        0.1111104444444437  0.3888885555555588  0.3372666666666667
        0.2777774444444476  0.2222215555555548  0.3372666666666667
        0.1111104444444437  0.8888885555555588  0.3372666666666667
        0.2777774444444476  0.7222215555555549  0.3372666666666667
        0.6111104444444437  0.3888885555555588  0.3372666666666667
        0.7777774444444476  0.2222215555555548  0.3372666666666667
        0.6111104444444437  0.8888885555555588  0.3372666666666667
        0.7777774444444476  0.7222215555555549  0.3372666666666667