Graphene-B4C3 Top with lattice parameter
   1.00000000000000     
     4.1951670238601606    2.4214047092663100    0.0015449437175501
    -4.1953709461420479    2.4217578063464749    0.0003114939906694
     0.0024057553113066    0.0062851031181885   13.3482614849239329
   B    C 
     4    11
Direct
  0.0038756908140516  0.0026466819388617  0.0837911993770447
  0.3589532583236464  0.0026075450571484  0.0821168822738983
  0.0037020055594436  0.3576273977786181  0.0821151515032283
  0.6488418421360282  0.6473860066356623  0.0821066927667140
  0.3278148119440965  0.3263480731618020  0.0821822303274373
  0.6800689087716567  0.0026736446873792  0.0820677542598873
  0.0036730466507614  0.6786750559670813  0.0820527766002048
  0.0002619308095736  0.5001264982199184  0.3437726491217388
  0.1670139828190088  0.3336460259098909  0.3438705407872508
  0.0002868362471900  0.0001737856397159  0.3438524824992383
  0.1671268613728549  0.8335409685559405  0.3438646437386700
  0.5003258313577771  0.5001961672176709  0.3437749431392437
  0.6669551447371211  0.3335130406217812  0.3437755048352951
  0.5002007722079236  0.0001907526268407  0.3437687267058731
  0.6668597429155592  0.8334156893150144  0.3438671553976229
 
  0.00000000E+00  0.00000000E+00  0.00000000E+00
  0.00000000E+00  0.00000000E+00  0.00000000E+00
  0.00000000E+00  0.00000000E+00  0.00000000E+00
  0.00000000E+00  0.00000000E+00  0.00000000E+00
  0.00000000E+00  0.00000000E+00  0.00000000E+00
  0.00000000E+00  0.00000000E+00  0.00000000E+00
  0.00000000E+00  0.00000000E+00  0.00000000E+00
  0.00000000E+00  0.00000000E+00  0.00000000E+00
  0.00000000E+00  0.00000000E+00  0.00000000E+00
  0.00000000E+00  0.00000000E+00  0.00000000E+00
  0.00000000E+00  0.00000000E+00  0.00000000E+00
  0.00000000E+00  0.00000000E+00  0.00000000E+00
  0.00000000E+00  0.00000000E+00  0.00000000E+00
  0.00000000E+00  0.00000000E+00  0.00000000E+00
  0.00000000E+00  0.00000000E+00  0.00000000E+00
