Graphene-B4C3 Hollow 2 with lattice para
   1.00000000000000     
     4.1482616841274602    2.3949999999999996    0.0000000000000000
    -4.1482616841274602    2.3949999999999996    0.0000000000000000
     0.0000000000000000    0.0000000000000000   15.0000000000000000
   B    C 
     4    11
Direct
  0.0048725827510713  0.0032427215547800  0.0944955297773556
  0.3597082027020751  0.0032396450315186  0.1026295941715201
  0.0048762923556304  0.3580853910340673  0.1026331619529584
  0.6500677220939548  0.6484347443374897  0.1026562180006228
  0.3289052769146710  0.3272694223974338  0.1015915523004408
  0.6808547045437983  0.0032478571399696  0.1015957225440476
  0.0048902780840493  0.6792258756829817  0.1015977432889435
  0.1660303958005390  0.3329180654005657  0.3380328330916458
  0.3327216167334592  0.1662344209869873  0.3380355074357496
  0.1660622211903497  0.8329240009774591  0.3380361721870885
  0.3327357443215469  0.6662641076020038  0.3379272554789143
  0.6660755907070364  0.3329267162836830  0.3379267374885009
  0.8327276446142511  0.1662531996225771  0.3380342025052469
  0.6660685929682993  0.8329063149369470  0.3380275320699233
  0.8326971342192762  0.6662615170115467  0.3380262377070690
 
  0.00000000E+00  0.00000000E+00  0.00000000E+00
  0.00000000E+00  0.00000000E+00  0.00000000E+00
  0.00000000E+00  0.00000000E+00  0.00000000E+00
  0.00000000E+00  0.00000000E+00  0.00000000E+00
  0.00000000E+00  0.00000000E+00  0.00000000E+00
  0.00000000E+00  0.00000000E+00  0.00000000E+00
  0.00000000E+00  0.00000000E+00  0.00000000E+00
  0.00000000E+00  0.00000000E+00  0.00000000E+00
  0.00000000E+00  0.00000000E+00  0.00000000E+00
  0.00000000E+00  0.00000000E+00  0.00000000E+00
  0.00000000E+00  0.00000000E+00  0.00000000E+00
  0.00000000E+00  0.00000000E+00  0.00000000E+00
  0.00000000E+00  0.00000000E+00  0.00000000E+00
  0.00000000E+00  0.00000000E+00  0.00000000E+00
  0.00000000E+00  0.00000000E+00  0.00000000E+00
