Graphene-BC3 Bridge with lattice paramet
   1.00000000000000     
     4.3569738064395107    2.5154999999999998    0.0000000000000000
    -4.3569738064395107    2.5154999999999998    0.0000000000000000
     0.0000000000000000    0.0000000000000000   15.0000000000000000
   B    C 
     2    14
Direct
  0.3253723994909125  0.6830479932411392  0.1011282916748680
  0.6583903792319538  0.3499771304707489  0.1008779502084225
  0.1512585846519875  0.3359431216057219  0.1011040558588672
  0.3110454932816314  0.1762032295756301  0.1006414411684374
  0.1516460363572241  0.8566523771909613  0.1004577865210351
  0.8318978716707917  0.1764501564188823  0.1012700724827566
  0.6724723592496039  0.8571063662464090  0.1010995743618542
  0.8321953338335235  0.6973018714571257  0.1006338925527072
  0.2631750883133679  0.2357911835244695  0.3254562025315284
  0.4297566249593315  0.0692529359807606  0.3255263716714201
  0.2631621047621341  0.7359676282050790  0.3252992426636808
  0.4299346969079239  0.5691938236435560  0.3253877421492018
  0.7632179456285592  0.2359062542610840  0.3253176342738869
  0.9299188972591473  0.0692085680615397  0.3254857243202865
  0.7633416821366080  0.7359565907527610  0.3254582169911177
  0.9298731689320041  0.5693661026974565  0.3255224672365855
 
  0.00000000E+00  0.00000000E+00  0.00000000E+00
  0.00000000E+00  0.00000000E+00  0.00000000E+00
  0.00000000E+00  0.00000000E+00  0.00000000E+00
  0.00000000E+00  0.00000000E+00  0.00000000E+00
  0.00000000E+00  0.00000000E+00  0.00000000E+00
  0.00000000E+00  0.00000000E+00  0.00000000E+00
  0.00000000E+00  0.00000000E+00  0.00000000E+00
  0.00000000E+00  0.00000000E+00  0.00000000E+00
  0.00000000E+00  0.00000000E+00  0.00000000E+00
  0.00000000E+00  0.00000000E+00  0.00000000E+00
  0.00000000E+00  0.00000000E+00  0.00000000E+00
  0.00000000E+00  0.00000000E+00  0.00000000E+00
  0.00000000E+00  0.00000000E+00  0.00000000E+00
  0.00000000E+00  0.00000000E+00  0.00000000E+00
  0.00000000E+00  0.00000000E+00  0.00000000E+00
  0.00000000E+00  0.00000000E+00  0.00000000E+00
