Graphene-Borophene Top with lattice para
   1.00000000000000     
     4.3474475269978798    2.5099999999999989    0.0000000000000000
    -4.3474475269978798    2.5099999999999989    0.0000000000000000
     0.0000000000000000    0.0000000000000000   15.0000000000000000
   B    C 
     8     8
Direct
  0.6681359169283806 -0.0000403144955558  0.1670261946435358
  0.3318227685760662 -0.0000403144955558  0.1670261946435358
  0.0000403144955558  0.3318630830716219  0.1670261946435358
  0.0000403144955558  0.6681762314239367  0.1670261946435358
  0.3318227685760662  0.3318630830716219  0.1670261946435358
  0.6681359169283806  0.6681762314239367  0.1670261946435358
  0.6666659999999993  0.3333330000000032  0.1780502219303860
  0.3333330000000032  0.6666659999999993  0.1557360280286519
  0.1666684820133567  0.3333379640267179  0.4006927748572517
  0.3333109855664559  0.1666549927832257  0.4007774022019422
  0.1666684820133567  0.8333305179866454  0.4006927748572517
  0.3333330000000032  0.6666659999999993  0.4006829263601254
  0.6666659999999993  0.3333330000000032  0.4008297913087311
  0.8333440072167762  0.1666549927832257  0.4007774022019422
  0.6666610359732845  0.8333305179866454  0.4006927748572517
  0.8333440072167762  0.6666880144335463  0.4007774022019422
 
  0.00000000E+00  0.00000000E+00  0.00000000E+00
  0.00000000E+00  0.00000000E+00  0.00000000E+00
  0.00000000E+00  0.00000000E+00  0.00000000E+00
  0.00000000E+00  0.00000000E+00  0.00000000E+00
  0.00000000E+00  0.00000000E+00  0.00000000E+00
  0.00000000E+00  0.00000000E+00  0.00000000E+00
  0.00000000E+00  0.00000000E+00  0.00000000E+00
  0.00000000E+00  0.00000000E+00  0.00000000E+00
  0.00000000E+00  0.00000000E+00  0.00000000E+00
  0.00000000E+00  0.00000000E+00  0.00000000E+00
  0.00000000E+00  0.00000000E+00  0.00000000E+00
  0.00000000E+00  0.00000000E+00  0.00000000E+00
  0.00000000E+00  0.00000000E+00  0.00000000E+00
  0.00000000E+00  0.00000000E+00  0.00000000E+00
  0.00000000E+00  0.00000000E+00  0.00000000E+00
  0.00000000E+00  0.00000000E+00  0.00000000E+00
