BC3 with lattice parameter 5.169        
   1.00000000000000     
     4.4764850000000003    2.5844999999999998    0.0000000000000000
    -4.4764850000000003    2.5844999999999998    0.0000000000000000
     0.0000000000000000    0.0000000000000000   15.0000000000000000
   B    C 
     2     6
Direct
  0.3383342154982040  0.6691650864483035  0.2500000000000000
  0.6716663069231175  0.3358318880187508  0.2500000000000000
  0.1637461269646094  0.3199998984690343  0.2500000000000000
  0.3224999012942156  0.1612503468477897  0.2500000000000000
  0.1637543229462125  0.8437488811262400  0.2500000000000000
  0.8462441397448122  0.1612508794065298  0.2500000000000000
  0.6874995977438499  0.8437500372177815  0.2500000000000000
  0.8462513888849812  0.6849989824655693  0.2500000000000000
 
  0.00000000E+00  0.00000000E+00  0.00000000E+00
  0.00000000E+00  0.00000000E+00  0.00000000E+00
  0.00000000E+00  0.00000000E+00  0.00000000E+00
  0.00000000E+00  0.00000000E+00  0.00000000E+00
  0.00000000E+00  0.00000000E+00  0.00000000E+00
  0.00000000E+00  0.00000000E+00  0.00000000E+00
  0.00000000E+00  0.00000000E+00  0.00000000E+00
  0.00000000E+00  0.00000000E+00  0.00000000E+00
