Graphene-B4C3 Hollow 1 with lattice para
   1.00000000000000     
     4.1889648781053292    2.4184999999999999    0.0000000000000000
    -4.1889648781053292    2.4184999999999999    0.0000000000000000
     0.0000000000000000    0.0000000000000000   15.0000000000000000
   B    C 
     4    11
Direct
  0.0491192843573531 -0.0375183437345429  0.0951144755350692
  0.4042018486983313 -0.0373279084308301  0.1011175809399732
  0.0491369204378996  0.3172777730314211  0.1013421834975202
  0.6949042702176355  0.6078423138977200  0.1013135287439735
  0.3732056575163042  0.2861934268230819  0.1004414809211140
  0.7255461589145565 -0.0373188049569177  0.1007157955564180
  0.0489193208908658  0.6386488944983196  0.1004686810288665
  0.0716084712129420  0.4241048244237623  0.3388166544154101
  0.2383245369399688  0.2574614235953925  0.3389086532552013
  0.0716408742589376  0.9241135015726514  0.3388756144734526
  0.2383856115477492  0.7573894572095624  0.3390852575200355
  0.5716652674126551  0.4241103925760623  0.3390268408836987
  0.7383188965530747  0.2573793405304131  0.3388101781489168
  0.5716281566239133  0.9241521387505567  0.3387748630516751
  0.7382442799733646  0.7573700146578153  0.3389675453619960
 
  0.00000000E+00  0.00000000E+00  0.00000000E+00
  0.00000000E+00  0.00000000E+00  0.00000000E+00
  0.00000000E+00  0.00000000E+00  0.00000000E+00
  0.00000000E+00  0.00000000E+00  0.00000000E+00
  0.00000000E+00  0.00000000E+00  0.00000000E+00
  0.00000000E+00  0.00000000E+00  0.00000000E+00
  0.00000000E+00  0.00000000E+00  0.00000000E+00
  0.00000000E+00  0.00000000E+00  0.00000000E+00
  0.00000000E+00  0.00000000E+00  0.00000000E+00
  0.00000000E+00  0.00000000E+00  0.00000000E+00
  0.00000000E+00  0.00000000E+00  0.00000000E+00
  0.00000000E+00  0.00000000E+00  0.00000000E+00
  0.00000000E+00  0.00000000E+00  0.00000000E+00
  0.00000000E+00  0.00000000E+00  0.00000000E+00
  0.00000000E+00  0.00000000E+00  0.00000000E+00
