Graphene-B4C3 Bridge with lattice parame
   1.00000000000000     
     4.1612520651842271    2.4024999999999999    0.0000000000000000
    -4.1612520651842271    2.4024999999999999    0.0000000000000000
     0.0000000000000000    0.0000000000000000   15.0000000000000000
   B    C 
     4    11
Direct
  0.0168494356360124 -0.0092217544520720  0.0953759800625105
  0.3719397066553494 -0.0090005641689940  0.1035504786426327
  0.0167703019566688  0.3452901460218950  0.1037948128638787
  0.6621827130017047  0.6356855810630423  0.1037073974033231
  0.3409405032723379  0.3143164610901882  0.1026796072162443
  0.6932052862863115 -0.0091006203038950  0.1025893284866606
  0.0163621767071110  0.6665156847978876  0.1026895500794861
  0.0722242990774962  0.4273467107926753  0.3363560354039089
  0.2389104295791907  0.2605663272602372  0.3365341055879640
  0.0722322354080361  0.9273804983076973  0.3363721582307396
  0.2389572086602054  0.7605945045443294  0.3362784848801386
  0.5721751180314845  0.4273413863512230  0.3363375912484661
  0.7388863591941887  0.2605539661497779  0.3362350292044907
  0.5721460680318422  0.9272984499284281  0.3365514764901674
  0.7388454918353816  0.7605338892842748  0.3363272975327254
 
  0.00000000E+00  0.00000000E+00  0.00000000E+00
  0.00000000E+00  0.00000000E+00  0.00000000E+00
  0.00000000E+00  0.00000000E+00  0.00000000E+00
  0.00000000E+00  0.00000000E+00  0.00000000E+00
  0.00000000E+00  0.00000000E+00  0.00000000E+00
  0.00000000E+00  0.00000000E+00  0.00000000E+00
  0.00000000E+00  0.00000000E+00  0.00000000E+00
  0.00000000E+00  0.00000000E+00  0.00000000E+00
  0.00000000E+00  0.00000000E+00  0.00000000E+00
  0.00000000E+00  0.00000000E+00  0.00000000E+00
  0.00000000E+00  0.00000000E+00  0.00000000E+00
  0.00000000E+00  0.00000000E+00  0.00000000E+00
  0.00000000E+00  0.00000000E+00  0.00000000E+00
  0.00000000E+00  0.00000000E+00  0.00000000E+00
  0.00000000E+00  0.00000000E+00  0.00000000E+00
