Graphene-B4C3 Top with lattice parameter
   1.00000000000000     
     4.2071514115848023    2.4289999999999998    0.0000000000000000
    -4.2071514115848023    2.4289999999999998    0.0000000000000000
     0.0000000000000000    0.0000000000000000   15.0000000000000000
   B    C 
     4    11
Direct
  0.0040476925298297  0.0027049938071826  0.1009537669669347
  0.3592247698521289  0.0029795636537054  0.1004577500501915
  0.0037424092247584  0.3575755023754879  0.1004591400159786
  0.6491437027073396  0.6474950005682099  0.1004535425578584
  0.3276563485951585  0.3260083444143209  0.1004470367890138
  0.6807104392524955  0.0029777946641791  0.1004415246274497
  0.0037364581666771  0.6790566980235309  0.1004377574023750
  0.0001559279708285  0.5000746854862697  0.3349854925864821
  0.1667974861715095  0.3334606851849521  0.3350208881724564
  0.0001287853626557  0.0000780944717051  0.3349451085884180
  0.1668415688862518  0.8334114858852096  0.3350248051316146
  0.5001367043582913  0.5001138032866661  0.3349884089779938
  0.6667955126744051  0.3334135134203468  0.3348918321709535
  0.5000954953789383  0.0000517953012817  0.3349842878649463
  0.6667473655354229  0.8333653727902782  0.3350213247640160
 
  0.00000000E+00  0.00000000E+00  0.00000000E+00
  0.00000000E+00  0.00000000E+00  0.00000000E+00
  0.00000000E+00  0.00000000E+00  0.00000000E+00
  0.00000000E+00  0.00000000E+00  0.00000000E+00
  0.00000000E+00  0.00000000E+00  0.00000000E+00
  0.00000000E+00  0.00000000E+00  0.00000000E+00
  0.00000000E+00  0.00000000E+00  0.00000000E+00
  0.00000000E+00  0.00000000E+00  0.00000000E+00
  0.00000000E+00  0.00000000E+00  0.00000000E+00
  0.00000000E+00  0.00000000E+00  0.00000000E+00
  0.00000000E+00  0.00000000E+00  0.00000000E+00
  0.00000000E+00  0.00000000E+00  0.00000000E+00
  0.00000000E+00  0.00000000E+00  0.00000000E+00
  0.00000000E+00  0.00000000E+00  0.00000000E+00
  0.00000000E+00  0.00000000E+00  0.00000000E+00
