Graphene-Borophene Bridge with lattice p
   1.00000000000000     
     4.3301278849475970    2.5000005000000001    0.0000000000000000
    -4.3301278849475970    2.5000005000000001    0.0000000000000000
     0.0000000000000000    0.0000000000000000   15.0000000000000000
   B    C 
     8     8
Direct
  0.6695178972076907 -0.0000001041902019  0.1000385161443190
  0.3304813353608705 -0.0000000599054132  0.1000386195056220
  0.0000001041902019  0.3304811027923117  0.1000385161443190
  0.0000000599054132  0.6695176646391321  0.1000386195056220
  0.3304811899873200  0.3304811390946125  0.1000386378889042
  0.6695178609053901  0.6695178100126825  0.1000386378889042
  0.6666660150395393  0.3333329849604633  0.0992652790960125
  0.3333327345418406  0.6666662654581619  0.1008208441972354
  0.2499999684279522  0.2500011649109290  0.4690272944243654
  0.4166674116684480  0.0833318418985609  0.4690266114091023
  0.2499990060863012  0.7499999939137013  0.4690261395490288
  0.4166664436630038  0.5833325563369988  0.4690269053588847
  0.7499981864871927  0.2500008135128098  0.4690270786016612
  0.9166664600050241  0.0833325399949785  0.4690277277859237
  0.7499978350890736  0.7499990315720505  0.4690272944243654
  0.9166671581014417  0.5833315883315545  0.4690266114091023
 
  0.00000000E+00  0.00000000E+00  0.00000000E+00
  0.00000000E+00  0.00000000E+00  0.00000000E+00
  0.00000000E+00  0.00000000E+00  0.00000000E+00
  0.00000000E+00  0.00000000E+00  0.00000000E+00
  0.00000000E+00  0.00000000E+00  0.00000000E+00
  0.00000000E+00  0.00000000E+00  0.00000000E+00
  0.00000000E+00  0.00000000E+00  0.00000000E+00
  0.00000000E+00  0.00000000E+00  0.00000000E+00
  0.00000000E+00  0.00000000E+00  0.00000000E+00
  0.00000000E+00  0.00000000E+00  0.00000000E+00
  0.00000000E+00  0.00000000E+00  0.00000000E+00
  0.00000000E+00  0.00000000E+00  0.00000000E+00
  0.00000000E+00  0.00000000E+00  0.00000000E+00
  0.00000000E+00  0.00000000E+00  0.00000000E+00
  0.00000000E+00  0.00000000E+00  0.00000000E+00
  0.00000000E+00  0.00000000E+00  0.00000000E+00
