Graphene-Borophene Top with lattice para
   1.00000000000000     
     4.3128065108465030    2.4899999999999993    0.0000000000000000
    -4.3128065108465030    2.4899999999999993    0.0000000000000000
     0.0000000000000000    0.0000000000000000   15.0000000000000000
   B    C 
     8     8
Direct
  0.6685102312781156  0.0000135755439181  0.1671722911801413
  0.3315023442658053  0.0000135755439181  0.1671722911801413
 -0.0000135755439181  0.3314887687218873  0.1671722911801413
 -0.0000135755439181  0.6684966557341973  0.1671722911801413
  0.3315023442658053  0.3314887687218873  0.1671722911801413
  0.6685102312781155  0.6684966557341970  0.1671722911801413
  0.6666659999999993  0.3333330000000032  0.1542000329462507
  0.3333330000000032  0.6666659999999993  0.1800913435690734
  0.1666495412180087  0.3333000824360220  0.4006149245687997
  0.3333135827281637  0.1666562913640796  0.4005118928076129
  0.1666495412180088  0.8333494587819933  0.4006149245687997
  0.3333330000000032  0.6666659999999993  0.4006696226722485
  0.6666659999999993  0.3333330000000032  0.4004914682690346
  0.8333427086359226  0.1666562913640796  0.4005118928076129
  0.6666989175639801  0.8333494587819933  0.4006149245687997
  0.8333427086359226  0.6666854172718393  0.4005118928076129
 
  0.00000000E+00  0.00000000E+00  0.00000000E+00
  0.00000000E+00  0.00000000E+00  0.00000000E+00
  0.00000000E+00  0.00000000E+00  0.00000000E+00
  0.00000000E+00  0.00000000E+00  0.00000000E+00
  0.00000000E+00  0.00000000E+00  0.00000000E+00
  0.00000000E+00  0.00000000E+00  0.00000000E+00
  0.00000000E+00  0.00000000E+00  0.00000000E+00
  0.00000000E+00  0.00000000E+00  0.00000000E+00
  0.00000000E+00  0.00000000E+00  0.00000000E+00
  0.00000000E+00  0.00000000E+00  0.00000000E+00
  0.00000000E+00  0.00000000E+00  0.00000000E+00
  0.00000000E+00  0.00000000E+00  0.00000000E+00
  0.00000000E+00  0.00000000E+00  0.00000000E+00
  0.00000000E+00  0.00000000E+00  0.00000000E+00
  0.00000000E+00  0.00000000E+00  0.00000000E+00
  0.00000000E+00  0.00000000E+00  0.00000000E+00
