Graphene-BC3 Hollow with lattice paramet
   1.00000000000000     
     4.3587058572470800    2.5165000000000002    0.0000000000000000
    -4.3587058572470800    2.5165000000000002    0.0000000000000000
     0.0000000000000000    0.0000000000000000   15.0000000000000000
   B    C 
     2    14
Direct
  0.3382206873565745  0.6691084166393689  0.1005433434603317
  0.6715569861099000  0.3357764481408096  0.1002148413352287
  0.1645793800035469  0.3218264117833397  0.1002310634933595
  0.3241976841998825  0.1620972150874098  0.1002381041504434
  0.1645788285428817  0.8427498145390950  0.1002311989351277
  0.8452296828768252  0.1620957328795996  0.1002241671732668
  0.6854981740525369  0.8427476194770214  0.1002175240753784
  0.8452296764576090  0.6831313806234971  0.1002242449485743
  0.3334626872722347  0.1667325490249503  0.3253174135385675
  0.5001521889334214  0.0001398043460397  0.3252974645198585
  0.3334432545973530  0.6667228359372703  0.3250094841074227
  0.5001521855255651  0.5000142302009015  0.3252974644855193
  0.8334381938152484  0.1667337541965627  0.3253126986427215
  0.0001151928999350  0.0000585141741459  0.3252968769832148
  0.8334381821763394  0.6667068387210530  0.3253127096939689
  0.0000323485134800  0.5000171008956305  0.3252980671236886
 
  0.00000000E+00  0.00000000E+00  0.00000000E+00
  0.00000000E+00  0.00000000E+00  0.00000000E+00
  0.00000000E+00  0.00000000E+00  0.00000000E+00
  0.00000000E+00  0.00000000E+00  0.00000000E+00
  0.00000000E+00  0.00000000E+00  0.00000000E+00
  0.00000000E+00  0.00000000E+00  0.00000000E+00
  0.00000000E+00  0.00000000E+00  0.00000000E+00
  0.00000000E+00  0.00000000E+00  0.00000000E+00
  0.00000000E+00  0.00000000E+00  0.00000000E+00
  0.00000000E+00  0.00000000E+00  0.00000000E+00
  0.00000000E+00  0.00000000E+00  0.00000000E+00
  0.00000000E+00  0.00000000E+00  0.00000000E+00
  0.00000000E+00  0.00000000E+00  0.00000000E+00
  0.00000000E+00  0.00000000E+00  0.00000000E+00
  0.00000000E+00  0.00000000E+00  0.00000000E+00
  0.00000000E+00  0.00000000E+00  0.00000000E+00
