Graphene-B4C3 Hollow 2 with lattice para
   1.00000000000000     
     4.2010892337583119    2.4255000000000000    0.0000000000000000
    -4.2010892337583119    2.4255000000000000    0.0000000000000000
     0.0000000000000000    0.0000000000000000   15.0000000000000000
   B    C 
     4    11
Direct
  0.0042868449700025  0.0028488925916418  0.0997381937585546
  0.3594402608676015  0.0028442232013428  0.1013164446935705
  0.0042854313795840  0.3579962688664128  0.1013184498714272
  0.6491327374437684  0.6476914529169424  0.1013286718263333
  0.3279418641894494  0.3264910017657901  0.1010514427895868
  0.6806570161717153  0.0028648191643015  0.1010769771340946
  0.0043112111216000  0.6792195378646666  0.1010823985285295
  0.1665470480163655  0.3332607931471215  0.3380674084453981
  0.3332304935199687  0.1665739595969008  0.3380691988346154
  0.1665951072153402  0.8332978876600909  0.3380718495961648
  0.3332341658072034  0.6665998430967662  0.3379598053730121
  0.6665677887456917  0.3332647229850616  0.3379597442042114
  0.8332666847127493  0.1666251263818849  0.3380709734731012
  0.6665757971950192  0.8332489676717324  0.3380676684805464
  0.8332215486439487  0.6666065030893543  0.3380667729908811
 
  0.00000000E+00  0.00000000E+00  0.00000000E+00
  0.00000000E+00  0.00000000E+00  0.00000000E+00
  0.00000000E+00  0.00000000E+00  0.00000000E+00
  0.00000000E+00  0.00000000E+00  0.00000000E+00
  0.00000000E+00  0.00000000E+00  0.00000000E+00
  0.00000000E+00  0.00000000E+00  0.00000000E+00
  0.00000000E+00  0.00000000E+00  0.00000000E+00
  0.00000000E+00  0.00000000E+00  0.00000000E+00
  0.00000000E+00  0.00000000E+00  0.00000000E+00
  0.00000000E+00  0.00000000E+00  0.00000000E+00
  0.00000000E+00  0.00000000E+00  0.00000000E+00
  0.00000000E+00  0.00000000E+00  0.00000000E+00
  0.00000000E+00  0.00000000E+00  0.00000000E+00
  0.00000000E+00  0.00000000E+00  0.00000000E+00
  0.00000000E+00  0.00000000E+00  0.00000000E+00
