Graphene-B4C3 Hollow 1 with lattice para
   1.00000000000000     
     4.1880988527015450    2.4180000000000001    0.0000000000000000
    -4.1880988527015450    2.4180000000000001    0.0000000000000000
     0.0000000000000000    0.0000000000000000   15.0000000000000000
   B    C 
     4    11
Direct
  0.0051078129800656  0.0019525448721186  0.1016717304572581
  0.3601306506917085  0.0018902633822748  0.1014418202660414
  0.0051371221860461  0.3570150270376122  0.1015550487743592
  0.6501453718042850  0.6468102977166424  0.1015109269397458
  0.3290221831568422  0.3256196063101037  0.1014573461492104
  0.6814529361955695  0.0019713106878880  0.1013139091176457
  0.0051921411266758  0.6780754317046125  0.1014692841996376
  0.1103028717091036  0.3896902057993983  0.3376422848844755
  0.2769367099260077  0.2229384736166267  0.3377345809271036
  0.1102838762191331  0.8897082914417420  0.3377031291106088
  0.2769459470404627  0.7230092556331656  0.3376325556862089
  0.6102000961260188  0.3896687518712454  0.3376396698302178
  0.7768832096651594  0.2229591369954544  0.3376408704394722
  0.6102040563326808  0.8896148991123241  0.3377078215655284
  0.7769045703957921  0.7229549482632581  0.3376583549858077
 
  0.00000000E+00  0.00000000E+00  0.00000000E+00
  0.00000000E+00  0.00000000E+00  0.00000000E+00
  0.00000000E+00  0.00000000E+00  0.00000000E+00
  0.00000000E+00  0.00000000E+00  0.00000000E+00
  0.00000000E+00  0.00000000E+00  0.00000000E+00
  0.00000000E+00  0.00000000E+00  0.00000000E+00
  0.00000000E+00  0.00000000E+00  0.00000000E+00
  0.00000000E+00  0.00000000E+00  0.00000000E+00
  0.00000000E+00  0.00000000E+00  0.00000000E+00
  0.00000000E+00  0.00000000E+00  0.00000000E+00
  0.00000000E+00  0.00000000E+00  0.00000000E+00
  0.00000000E+00  0.00000000E+00  0.00000000E+00
  0.00000000E+00  0.00000000E+00  0.00000000E+00
  0.00000000E+00  0.00000000E+00  0.00000000E+00
  0.00000000E+00  0.00000000E+00  0.00000000E+00
