Graphene-B4C3 Bridge with lattice parame
   1.00000000000000     
     4.1222809220139274    2.3799999999999999    0.0000000000000000
    -4.1222809220139274    2.3799999999999999    0.0000000000000000
     0.0000000000000000    0.0000000000000000   15.0000000000000000
   B    C 
     4    11
Direct
  0.0326668028950646 -0.0239957975867682  0.1149460300999639
  0.3867312636190655 -0.0239064973435257  0.0996874900871755
  0.0325196982132433  0.3298379969949845  0.0995552440238438
  0.6787869087428711  0.6218898404323466  0.0996027908855568
  0.3566277482312636  0.2996628407944364  0.1013282305318600
  0.7090394074586828 -0.0238276085645490  0.1013988887944863
  0.0326102057552825  0.6520107305730583  0.1013448862073003
  0.0584378459373840  0.4401585298384639  0.3359280299627187
  0.2250714465211736  0.2735455915836729  0.3360594883770701
  0.0583799384820684  0.9401083304189247  0.3358587299710403
  0.2251173157659036  0.7735041216258322  0.3359367055309007
  0.5583673988625065  0.4401540619257855  0.3359134256365167
  0.7249926901455916  0.2734476284716134  0.3358223552171020
  0.5583269315144886  0.9400635536075503  0.3360455060449674
  0.7249517311887311  0.7734473438948707  0.3359515319628329
 
  0.00000000E+00  0.00000000E+00  0.00000000E+00
  0.00000000E+00  0.00000000E+00  0.00000000E+00
  0.00000000E+00  0.00000000E+00  0.00000000E+00
  0.00000000E+00  0.00000000E+00  0.00000000E+00
  0.00000000E+00  0.00000000E+00  0.00000000E+00
  0.00000000E+00  0.00000000E+00  0.00000000E+00
  0.00000000E+00  0.00000000E+00  0.00000000E+00
  0.00000000E+00  0.00000000E+00  0.00000000E+00
  0.00000000E+00  0.00000000E+00  0.00000000E+00
  0.00000000E+00  0.00000000E+00  0.00000000E+00
  0.00000000E+00  0.00000000E+00  0.00000000E+00
  0.00000000E+00  0.00000000E+00  0.00000000E+00
  0.00000000E+00  0.00000000E+00  0.00000000E+00
  0.00000000E+00  0.00000000E+00  0.00000000E+00
  0.00000000E+00  0.00000000E+00  0.00000000E+00
