Graphene-BC3 Bridge with lattice paramet
   1.00000000000000     
     4.3595718826508634    2.5169999999999999    0.0000000000000000
    -4.3595718826508634    2.5169999999999999    0.0000000000000000
     0.0000000000000000    0.0000000000000000   15.0000000000000000
   B    C 
     2    14
Direct
  0.3382856413179746  0.6692140666163264  0.1002473075310430
  0.6716362939379399  0.3358660444538484  0.1001436174510627
  0.1646322397695969  0.3219875562187664  0.0999000336564726
  0.3242448960253175  0.1622551945032976  0.0999380914632691
  0.1645572118614323  0.8429413379730107  0.0999706535815319
  0.8452357409902669  0.1622709349345565  0.0998654270293436
  0.6855158983741571  0.8428762346361778  0.0999019931322099
  0.8452461916414522  0.6832656321470836  0.0999400109453881
  0.2500310499695308  0.2497863904709964  0.3264470930337099
  0.4166213500064591  0.0832325842264075  0.3263761161189816
  0.2500136840415599  0.7499842740836389  0.3262389423360041
  0.4167753549457546  0.5832181283348032  0.3262257962169285
  0.7500835746912877  0.2499080847633379  0.3262267604035877
  0.9168110396080696  0.0831809065732075  0.3264294798509877
  0.7502078397036200  0.7499652546642829  0.3264465555973294
  0.9167606597822862  0.5833727087335823  0.3263687883188073
 
  0.00000000E+00  0.00000000E+00  0.00000000E+00
  0.00000000E+00  0.00000000E+00  0.00000000E+00
  0.00000000E+00  0.00000000E+00  0.00000000E+00
  0.00000000E+00  0.00000000E+00  0.00000000E+00
  0.00000000E+00  0.00000000E+00  0.00000000E+00
  0.00000000E+00  0.00000000E+00  0.00000000E+00
  0.00000000E+00  0.00000000E+00  0.00000000E+00
  0.00000000E+00  0.00000000E+00  0.00000000E+00
  0.00000000E+00  0.00000000E+00  0.00000000E+00
  0.00000000E+00  0.00000000E+00  0.00000000E+00
  0.00000000E+00  0.00000000E+00  0.00000000E+00
  0.00000000E+00  0.00000000E+00  0.00000000E+00
  0.00000000E+00  0.00000000E+00  0.00000000E+00
  0.00000000E+00  0.00000000E+00  0.00000000E+00
  0.00000000E+00  0.00000000E+00  0.00000000E+00
  0.00000000E+00  0.00000000E+00  0.00000000E+00
