Graphene-BC3 Hollow with lattice paramet
   1.00000000000000     
     4.3682321366887082    2.5219999999999998    0.0000000000000000
    -4.3682321366887082    2.5219999999999998    0.0000000000000000
     0.0000000000000000    0.0000000000000000   15.0000000000000000
   B    C 
     2    14
Direct
  0.3382252140525116  0.6691091324665359  0.1135122064541651
  0.6715613670693971  0.3357755554369824  0.1131841853005529
  0.1645054773048693  0.3216661663777168  0.1131635764398550
  0.3240406670878905  0.1620159214918064  0.1131742880526155
  0.1645044260996529  0.8428275598626102  0.1131656537807283
  0.8453168628972381  0.1620150310381530  0.1131661478039098
  0.6856621229145449  0.8428252455409665  0.1131583569745688
  0.8453166305523574  0.6832942912653736  0.1131682515934807
  0.3334588231936915  0.1667335254590557  0.3380438171560878
  0.5001498115499593  0.0001467290131684  0.3380159227598066
  0.3334381377012726  0.6667231872383232  0.3377164142791491
  0.5001497989423134  0.5000115958586864  0.3380159318998318
  0.8334325697595704  0.1667348031255882  0.3380388700259632
  0.0001097564508802  0.0000590924650244  0.3380209705873169
  0.8334326029320124  0.6667060494644340  0.3380389125570842
  0.0000210648251729  0.5000147805622687  0.3380164943348842
 
  0.00000000E+00  0.00000000E+00  0.00000000E+00
  0.00000000E+00  0.00000000E+00  0.00000000E+00
  0.00000000E+00  0.00000000E+00  0.00000000E+00
  0.00000000E+00  0.00000000E+00  0.00000000E+00
  0.00000000E+00  0.00000000E+00  0.00000000E+00
  0.00000000E+00  0.00000000E+00  0.00000000E+00
  0.00000000E+00  0.00000000E+00  0.00000000E+00
  0.00000000E+00  0.00000000E+00  0.00000000E+00
  0.00000000E+00  0.00000000E+00  0.00000000E+00
  0.00000000E+00  0.00000000E+00  0.00000000E+00
  0.00000000E+00  0.00000000E+00  0.00000000E+00
  0.00000000E+00  0.00000000E+00  0.00000000E+00
  0.00000000E+00  0.00000000E+00  0.00000000E+00
  0.00000000E+00  0.00000000E+00  0.00000000E+00
  0.00000000E+00  0.00000000E+00  0.00000000E+00
  0.00000000E+00  0.00000000E+00  0.00000000E+00
