k-points 59
0
Gamma
59    59    1
0    0    0