Graphene-Borophene Hollow 2 with lattice
   1.00000000000000     
     4.2954860027708150    2.4799999999999995    0.0000000000000000
    -4.2954860027708150    2.4799999999999995    0.0000000000000000
     0.0000000000000000    0.0000000000000000   15.0000000000000000
   B    C 
     8     8
Direct
  0.6695207822852641 -0.0000785150262907  0.1674070632152199
  0.3303997026884476 -0.0000785150262907  0.1674070632152199
  0.0000785150262907  0.3304782177147386  0.1674070632152199
  0.0000785150262907  0.6695992973115545  0.1674070632152199
  0.3303997026884476  0.3304782177147386  0.1674070632152199
  0.6695207822852641  0.6695992973115545  0.1674070632152199
  0.6666659999999993  0.3333330000000032  0.1591605284907548
  0.3333330000000032  0.6666659999999993  0.1765477084949386
  0.3333522978185750  0.1666761489092946  0.4030583747763243
  0.5000244406741344  0.0000488813482689  0.4031366812618315
  0.3333326666666636  0.6666663333333389  0.4030908042518339
  0.5000244406741344  0.4999745593258684  0.4031366812618315
  0.8333228510907080  0.1666761489092946  0.4030583747763243
  0.9999996666666675  0.9999993333333350  0.4029734113566767
  0.8333228510907080  0.6666467021814276  0.4030583747763243
 -0.0000498813482665  0.4999745593258684  0.4031366812618315
 
  0.00000000E+00  0.00000000E+00  0.00000000E+00
  0.00000000E+00  0.00000000E+00  0.00000000E+00
  0.00000000E+00  0.00000000E+00  0.00000000E+00
  0.00000000E+00  0.00000000E+00  0.00000000E+00
  0.00000000E+00  0.00000000E+00  0.00000000E+00
  0.00000000E+00  0.00000000E+00  0.00000000E+00
  0.00000000E+00  0.00000000E+00  0.00000000E+00
  0.00000000E+00  0.00000000E+00  0.00000000E+00
  0.00000000E+00  0.00000000E+00  0.00000000E+00
  0.00000000E+00  0.00000000E+00  0.00000000E+00
  0.00000000E+00  0.00000000E+00  0.00000000E+00
  0.00000000E+00  0.00000000E+00  0.00000000E+00
  0.00000000E+00  0.00000000E+00  0.00000000E+00
  0.00000000E+00  0.00000000E+00  0.00000000E+00
  0.00000000E+00  0.00000000E+00  0.00000000E+00
  0.00000000E+00  0.00000000E+00  0.00000000E+00
