BC3 with lattice parameter 5.169        
   1.00000000000000     
     4.4764850000000003    2.5844999999999998    0.0000000000000000
    -4.4764850000000003    2.5844999999999998    0.0000000000000000
     0.0000000000000000    0.0000000000000000   15.0000000000000000
   B    C 
     2     6
Direct
  0.3383342013615729  0.6691650930013622  0.2500000000000000
  0.6716663146167596  0.3358318855544997  0.2500000000000000
  0.1637461407346910  0.3199998949608875  0.2500000000000000
  0.3224998785090668  0.1612503713802486  0.2500000000000000
  0.1637543580590514  0.8437489078256791  0.2500000000000000
  0.8462441065681501  0.1612508533480609  0.2500000000000000
  0.6874996212654335  0.8437500100538345  0.2500000000000000
  0.8462513788852772  0.6849989838754265  0.2500000000000000
 
  0.00000000E+00  0.00000000E+00  0.00000000E+00
  0.00000000E+00  0.00000000E+00  0.00000000E+00
  0.00000000E+00  0.00000000E+00  0.00000000E+00
  0.00000000E+00  0.00000000E+00  0.00000000E+00
  0.00000000E+00  0.00000000E+00  0.00000000E+00
  0.00000000E+00  0.00000000E+00  0.00000000E+00
  0.00000000E+00  0.00000000E+00  0.00000000E+00
  0.00000000E+00  0.00000000E+00  0.00000000E+00
