Graphene-BC3 Bridge with lattice paramet
   1.00000000000000     
     4.3734282891114136    2.5249999999999995    0.0000000000000000
    -4.3734282891114136    2.5249999999999995    0.0000000000000000
     0.0000000000000000    0.0000000000000000   15.0000000000000000
   B    C 
     2    14
Direct
  0.3261298335012514  0.6821778107963073  0.1006010460141775
  0.6595507432002086  0.3487819399282621  0.1004117191089807
  0.1524351726022501  0.3347996892674243  0.1002061530294570
  0.3119428335602503  0.1751587196888306  0.1002225523082330
  0.1523183534230785  0.8559957049922190  0.1001985404631837
  0.8332019936819555  0.1751088997632565  0.1002172525031506
  0.6735765584675520  0.8559256987364021  0.1002024987015310
  0.8331649746537660  0.6964288672463634  0.1002199204034346
  0.2621940334940142  0.2368805044295825  0.3261621657212116
  0.4288107393256255  0.0703117551955316  0.3260800550375459
  0.2621710203022508  0.7369926501652080  0.3258644500447928
  0.4289127854068287  0.5702468812998276  0.3259644701113454
  0.7622093149343684  0.2369497834066825  0.3259677518629835
  0.9289109163417947  0.0702483598531758  0.3261152475031290
  0.7622811301755748  0.7369689657213353  0.3261613404781951
  0.9288482635959342  0.5703491028429135  0.3260715033753053
 
  0.00000000E+00  0.00000000E+00  0.00000000E+00
  0.00000000E+00  0.00000000E+00  0.00000000E+00
  0.00000000E+00  0.00000000E+00  0.00000000E+00
  0.00000000E+00  0.00000000E+00  0.00000000E+00
  0.00000000E+00  0.00000000E+00  0.00000000E+00
  0.00000000E+00  0.00000000E+00  0.00000000E+00
  0.00000000E+00  0.00000000E+00  0.00000000E+00
  0.00000000E+00  0.00000000E+00  0.00000000E+00
  0.00000000E+00  0.00000000E+00  0.00000000E+00
  0.00000000E+00  0.00000000E+00  0.00000000E+00
  0.00000000E+00  0.00000000E+00  0.00000000E+00
  0.00000000E+00  0.00000000E+00  0.00000000E+00
  0.00000000E+00  0.00000000E+00  0.00000000E+00
  0.00000000E+00  0.00000000E+00  0.00000000E+00
  0.00000000E+00  0.00000000E+00  0.00000000E+00
  0.00000000E+00  0.00000000E+00  0.00000000E+00
