Graphene-BC3 Hollow with lattice paramet
   1.00000000000000     
     4.3734282891114136    2.5249999999999995    0.0000000000000000
    -4.3734282891114136    2.5249999999999995    0.0000000000000000
     0.0000000000000000    0.0000000000000000   15.0000000000000000
   B    C 
     2    14
Direct
  0.3382700595844153  0.6691343582559182  0.1004187419389199
  0.6716041872326461  0.3358015342240475  0.1001052076250199
  0.1645208018344464  0.3216357488301277  0.1001092084342505
  0.3240292058125447  0.1620131481554014  0.1001195511396445
  0.1645209175547014  0.8428832283744259  0.1001092824312887
  0.8453887058998681  0.1620118191690551  0.1001053893681968
  0.6857617041978290  0.8428795292752816  0.1000952934248868
  0.8453893372148947  0.6833744940469151  0.1001054991908352
  0.3334151067657098  0.1667079847585219  0.3254372346881133
  0.5001028716072443  0.0001173959873304  0.3254145708245559
  0.3333955292905716  0.6666982012702494  0.3251340361728715
  0.5001029034776194  0.4999868901853316  0.3254145698648446
  0.8333903582970624  0.1667094087035673  0.3254325591172813
  0.0000644861479154  0.0000329657078630  0.3254178393842156
  0.8333903768895350  0.6666818483296021  0.3254325640182776
  0.9999787815263300  0.4999901113930563  0.3254151190434695
 
  0.00000000E+00  0.00000000E+00  0.00000000E+00
  0.00000000E+00  0.00000000E+00  0.00000000E+00
  0.00000000E+00  0.00000000E+00  0.00000000E+00
  0.00000000E+00  0.00000000E+00  0.00000000E+00
  0.00000000E+00  0.00000000E+00  0.00000000E+00
  0.00000000E+00  0.00000000E+00  0.00000000E+00
  0.00000000E+00  0.00000000E+00  0.00000000E+00
  0.00000000E+00  0.00000000E+00  0.00000000E+00
  0.00000000E+00  0.00000000E+00  0.00000000E+00
  0.00000000E+00  0.00000000E+00  0.00000000E+00
  0.00000000E+00  0.00000000E+00  0.00000000E+00
  0.00000000E+00  0.00000000E+00  0.00000000E+00
  0.00000000E+00  0.00000000E+00  0.00000000E+00
  0.00000000E+00  0.00000000E+00  0.00000000E+00
  0.00000000E+00  0.00000000E+00  0.00000000E+00
  0.00000000E+00  0.00000000E+00  0.00000000E+00
