Graphene-B4C3 Hollow 2 with lattice para
   1.00000000000000     
     4.1906969289128986    2.4195000000000002    0.0000000000000000
    -4.1906969289128986    2.4195000000000002    0.0000000000000000
     0.0000000000000000    0.0000000000000000   15.0000000000000000
   B    C 
     4    11
Direct
  0.0043773538198240  0.0029072354323047  0.0995078310719971
  0.3595281297883857  0.0029140875087945  0.1011790291304556
  0.0043869576559968  0.3580583203269770  0.1011812916871773
  0.6492343249937720  0.6477610932952923  0.1011852171746508
  0.3281175031963918  0.3266451746038269  0.1009266127551215
  0.6806517288229756  0.0029131948637975  0.1009187654323390
  0.0043850291742349  0.6791789760978513  0.1009175336052420
  0.1664712435550225  0.3332118188341179  0.3382050823281594
  0.3331564858006763  0.1665265282896464  0.3382068270087999
  0.1665117808586984  0.8332362890121641  0.3382089769901065
  0.3331600226617374  0.6665500419033065  0.3380961898920330
  0.6664943465370595  0.3332146155313606  0.3380961822553294
  0.8331802870973788  0.1665665067331960  0.3382083996389272
  0.6664967131821652  0.8331979683141189  0.3382046209677512
  0.8331420928556882  0.6665521492532571  0.3382034400619374
 
  0.00000000E+00  0.00000000E+00  0.00000000E+00
  0.00000000E+00  0.00000000E+00  0.00000000E+00
  0.00000000E+00  0.00000000E+00  0.00000000E+00
  0.00000000E+00  0.00000000E+00  0.00000000E+00
  0.00000000E+00  0.00000000E+00  0.00000000E+00
  0.00000000E+00  0.00000000E+00  0.00000000E+00
  0.00000000E+00  0.00000000E+00  0.00000000E+00
  0.00000000E+00  0.00000000E+00  0.00000000E+00
  0.00000000E+00  0.00000000E+00  0.00000000E+00
  0.00000000E+00  0.00000000E+00  0.00000000E+00
  0.00000000E+00  0.00000000E+00  0.00000000E+00
  0.00000000E+00  0.00000000E+00  0.00000000E+00
  0.00000000E+00  0.00000000E+00  0.00000000E+00
  0.00000000E+00  0.00000000E+00  0.00000000E+00
  0.00000000E+00  0.00000000E+00  0.00000000E+00
