Graphene-B4C3 Hollow 1 with lattice para
   1.00000000000000     
     4.1863668018939757    2.4169999999999998    0.0000000000000000
    -4.1863668018939757    2.4169999999999998    0.0000000000000000
     0.0000000000000000    0.0000000000000000   15.0000000000000000
   B    C 
     4    11
Direct
  0.0156540513372912 -0.0075384499656260  0.0989174174837613
  0.3708244092868473 -0.0075309820579712  0.1016072893180113
  0.0157494626023281  0.3474162083749891  0.1018293060184528
  0.6608474615740629  0.6373518743751170  0.1017667536312105
  0.3395030092908199  0.3160789225053059  0.1012846635632834
  0.6920931683182608 -0.0075882753603256  0.1014538854651484
  0.0156372379940039  0.6688085207775761  0.1013252629949159
  0.1009395733379310  0.3979487149214711  0.3379192634680136
  0.2676518176792640  0.2312889622080567  0.3380131719030980
  0.1010040136686811  0.8979524521150009  0.3379819923023934
  0.2677073620613071  0.7312722700691069  0.3379096771784589
  0.6009893358468762  0.3979292304207929  0.3379387697529893
  0.7676745354459132  0.2312393009295909  0.3378918803363743
  0.6009688727990659  0.8979715744387272  0.3380148904218701
  0.7676052443128977  0.7312781206926550  0.3379251094953398
 
  0.00000000E+00  0.00000000E+00  0.00000000E+00
  0.00000000E+00  0.00000000E+00  0.00000000E+00
  0.00000000E+00  0.00000000E+00  0.00000000E+00
  0.00000000E+00  0.00000000E+00  0.00000000E+00
  0.00000000E+00  0.00000000E+00  0.00000000E+00
  0.00000000E+00  0.00000000E+00  0.00000000E+00
  0.00000000E+00  0.00000000E+00  0.00000000E+00
  0.00000000E+00  0.00000000E+00  0.00000000E+00
  0.00000000E+00  0.00000000E+00  0.00000000E+00
  0.00000000E+00  0.00000000E+00  0.00000000E+00
  0.00000000E+00  0.00000000E+00  0.00000000E+00
  0.00000000E+00  0.00000000E+00  0.00000000E+00
  0.00000000E+00  0.00000000E+00  0.00000000E+00
  0.00000000E+00  0.00000000E+00  0.00000000E+00
  0.00000000E+00  0.00000000E+00  0.00000000E+00
