Graphene-Borophene Hollow 1 with lattice
   1.00000000000000     
     4.3197347140767803    2.4940000000000002    0.0000000000000000
    -4.3197347140767803    2.4940000000000002    0.0000000000000000
     0.0000000000000000    0.0000000000000000   15.0000000000000000
   B    C 
     8     8
Direct
  0.6727555679414101 -0.0034893712639485  0.1669293325896663
  0.3340251245499705 -0.0033026690348140  0.1671214402551939
  0.0034893712639485  0.3272434320585920  0.1669293325896663
  0.0033026690348140  0.6659738754500318  0.1671214402551939
  0.3338860737375336  0.3271846727199614  0.1669191448074179
  0.6728143272800419  0.6661129262624694  0.1669191448074179
  0.6698110917038409  0.3301879082961612  0.1617444247110512
  0.3365875828591847  0.6634114171408182  0.1726340222262397
  0.2744213542659735  0.2255403471422421  0.4025441042889226
  0.4410894242425744  0.0588733949406234  0.4025981573210967
  0.2744289236361440  0.7255700763638585  0.4025588624869852
  0.4411175892057574  0.5588814107942452  0.4026353258378177
  0.7744593464889181  0.2255396535110843  0.4025542513475399
  0.9411091847616804  0.0588898152383219  0.4024487548657811
  0.7744586528577606  0.7255776457340287  0.4025441042889226
  0.9411256050593794  0.5589095757574288  0.4025981573210967
 
  0.00000000E+00  0.00000000E+00  0.00000000E+00
  0.00000000E+00  0.00000000E+00  0.00000000E+00
  0.00000000E+00  0.00000000E+00  0.00000000E+00
  0.00000000E+00  0.00000000E+00  0.00000000E+00
  0.00000000E+00  0.00000000E+00  0.00000000E+00
  0.00000000E+00  0.00000000E+00  0.00000000E+00
  0.00000000E+00  0.00000000E+00  0.00000000E+00
  0.00000000E+00  0.00000000E+00  0.00000000E+00
  0.00000000E+00  0.00000000E+00  0.00000000E+00
  0.00000000E+00  0.00000000E+00  0.00000000E+00
  0.00000000E+00  0.00000000E+00  0.00000000E+00
  0.00000000E+00  0.00000000E+00  0.00000000E+00
  0.00000000E+00  0.00000000E+00  0.00000000E+00
  0.00000000E+00  0.00000000E+00  0.00000000E+00
  0.00000000E+00  0.00000000E+00  0.00000000E+00
  0.00000000E+00  0.00000000E+00  0.00000000E+00
