Graphene-BC3 Bridge with lattice paramet
   1.00000000000000     
     4.3621699588622169    2.5185000000000000    0.0000000000000000
    -4.3621699588622169    2.5185000000000000    0.0000000000000000
     0.0000000000000000    0.0000000000000000   15.0000000000000000
   B    C 
     2    14
Direct
  0.3232552321014819  0.6852087587352444  0.1010831074344691
  0.6566811655079769  0.3518202232724175  0.1008484721037799
  0.1496303420358215  0.3379567205331405  0.1006169023291706
  0.3091944639759139  0.1782296582368856  0.1008003646051926
  0.1495585133650909  0.8589377138142033  0.1009213324327842
  0.8302406869942496  0.1782349974931841  0.1005305841257234
  0.6705229161265754  0.8588606424479022  0.1006621329560644
  0.8302382487698987  0.6992741799429102  0.1008461309126557
  0.2651024564689147  0.2339087213926639  0.3256054337597066
  0.4317289563406011  0.0673223869555697  0.3256040871775636
  0.2650791134558239  0.7339422906513652  0.3253423620943204
  0.4317786561209970  0.5672354319200175  0.3255268894283592
  0.7650924581998864  0.2339253933505824  0.3254758080042862
  0.9317507728840135  0.0672636270756932  0.3255991603652262
  0.7651118181216652  0.7339189102774243  0.3256058993829490
  0.9316928661977937  0.5672856772341209  0.3255979995544065
 
  0.00000000E+00  0.00000000E+00  0.00000000E+00
  0.00000000E+00  0.00000000E+00  0.00000000E+00
  0.00000000E+00  0.00000000E+00  0.00000000E+00
  0.00000000E+00  0.00000000E+00  0.00000000E+00
  0.00000000E+00  0.00000000E+00  0.00000000E+00
  0.00000000E+00  0.00000000E+00  0.00000000E+00
  0.00000000E+00  0.00000000E+00  0.00000000E+00
  0.00000000E+00  0.00000000E+00  0.00000000E+00
  0.00000000E+00  0.00000000E+00  0.00000000E+00
  0.00000000E+00  0.00000000E+00  0.00000000E+00
  0.00000000E+00  0.00000000E+00  0.00000000E+00
  0.00000000E+00  0.00000000E+00  0.00000000E+00
  0.00000000E+00  0.00000000E+00  0.00000000E+00
  0.00000000E+00  0.00000000E+00  0.00000000E+00
  0.00000000E+00  0.00000000E+00  0.00000000E+00
  0.00000000E+00  0.00000000E+00  0.00000000E+00
