Graphene-BC3 Bridge with lattice paramet
   1.00000000000000     
     4.3621699588622169    2.5185000000000000    0.0000000000000000
    -4.3621699588622169    2.5185000000000000    0.0000000000000000
     0.0000000000000000    0.0000000000000000   15.0000000000000000
   B    C 
     2    14
Direct
  0.3236557812750119  0.6847739682342286  0.1009767548912903
  0.6570780858656550  0.3513858715654864  0.1007457251041772
  0.1500199607303584  0.3374911051644266  0.1005634028734682
  0.3096363396991942  0.1778169726913975  0.1007173543024807
  0.1499738737937889  0.8584714051234461  0.1008244062226935
  0.8306968588372363  0.1777562201724050  0.1004763814588524
  0.6709752288438054  0.8584529832682705  0.1006047294624743
  0.8306065465099916  0.6988253940300219  0.1007598900203887
  0.2646625240657082  0.2343561626477717  0.3256934842719119
  0.4313205321461427  0.0677462292239042  0.3256736472930558
  0.2646343074473916  0.7344119674917292  0.3253658670180402
  0.4313844818892942  0.5676611660029194  0.3256199118482702
  0.7646627711336863  0.2343800774816090  0.3255449660876211
  0.9313612199015807  0.0676852422933980  0.3257428870986201
  0.7646886102100664  0.7343835136976360  0.3256916685842728
  0.9313015443177926  0.5677270542446746  0.3256655901290403
 
  0.00000000E+00  0.00000000E+00  0.00000000E+00
  0.00000000E+00  0.00000000E+00  0.00000000E+00
  0.00000000E+00  0.00000000E+00  0.00000000E+00
  0.00000000E+00  0.00000000E+00  0.00000000E+00
  0.00000000E+00  0.00000000E+00  0.00000000E+00
  0.00000000E+00  0.00000000E+00  0.00000000E+00
  0.00000000E+00  0.00000000E+00  0.00000000E+00
  0.00000000E+00  0.00000000E+00  0.00000000E+00
  0.00000000E+00  0.00000000E+00  0.00000000E+00
  0.00000000E+00  0.00000000E+00  0.00000000E+00
  0.00000000E+00  0.00000000E+00  0.00000000E+00
  0.00000000E+00  0.00000000E+00  0.00000000E+00
  0.00000000E+00  0.00000000E+00  0.00000000E+00
  0.00000000E+00  0.00000000E+00  0.00000000E+00
  0.00000000E+00  0.00000000E+00  0.00000000E+00
  0.00000000E+00  0.00000000E+00  0.00000000E+00
