k-points 24
0
Gamma
24    24    1
0    0    0