Graphene-B4C3 Top with lattice parameter
   1.00000000000000     
     4.1967591067393899    2.4230000000000000    0.0000000000000000
    -4.1967591067393899    2.4230000000000000    0.0000000000000000
     0.0000000000000000    0.0000000000000000   15.0000000000000000
  B/a32ced30f5ae  C/253f7b50bb8d
               4               3
Direct
  0.0040565264971519  0.0026973426677586  0.1015010599725343
  0.3592454943976406  0.0029787041833771  0.1007114085925380
  0.0037678318271048  0.3575995130750584  0.1007121690269983
  0.6491481768132701  0.6475062740020121  0.1007086017073817
  0.3277847569300647  0.3261441447265980  0.1007308620386453
  0.6806018782821397  0.0029748903958762  0.1007305422685505
  0.0037705582332350  0.6789592123307386  0.1007278578461026
 
  0.00000000E+00  0.00000000E+00  0.00000000E+00
  0.00000000E+00  0.00000000E+00  0.00000000E+00
  0.00000000E+00  0.00000000E+00  0.00000000E+00
  0.00000000E+00  0.00000000E+00  0.00000000E+00
  0.00000000E+00  0.00000000E+00  0.00000000E+00
  0.00000000E+00  0.00000000E+00  0.00000000E+00
  0.00000000E+00  0.00000000E+00  0.00000000E+00
