Graphene-BC3 Top with lattice parameter 
   1.00000000000000     
     4.3639020096697863    2.5194999999999999    0.0000000000000000
    -4.3639020096697863    2.5194999999999999    0.0000000000000000
     0.0000000000000000    0.0000000000000000   15.0000000000000000
   B    C 
     2    14
Direct
  0.3383345351460987  0.6691672582056307  0.1002356216421924
  0.6716675348340604  0.3358336335907832  0.1002356099887956
  0.1646566622444013  0.3218076716727782  0.0999120358239996
  0.3243110284452708  0.1621556391524057  0.0999110634970572
  0.1646578559124685  0.8428496953355823  0.0999120335490437
  0.8453523783228976  0.1621529713552298  0.0999135587871675
  0.6857021073450582  0.8428500831389828  0.0999141452142656
  0.8453537978522457  0.6831986152609075  0.0999135526605787
  0.1665660350566581  0.3331390779321810  0.3288818985223523
  0.3331365460613439  0.1665680715419419  0.3288830101237613
  0.1665660367735061  0.8334265553863939  0.3288818982197718
  0.3333266895811155  0.6666631455038098  0.3285841731534665
  0.6666600751902320  0.3333298359008758  0.3285841710051475
  0.8334240964729576  0.1665686317027072  0.3288795036906478
  0.6668525288938656  0.8334260633792611  0.3288782208100088
  0.8334240918678393  0.6668550509405379  0.3288795033117635
 
  0.00000000E+00  0.00000000E+00  0.00000000E+00
  0.00000000E+00  0.00000000E+00  0.00000000E+00
  0.00000000E+00  0.00000000E+00  0.00000000E+00
  0.00000000E+00  0.00000000E+00  0.00000000E+00
  0.00000000E+00  0.00000000E+00  0.00000000E+00
  0.00000000E+00  0.00000000E+00  0.00000000E+00
  0.00000000E+00  0.00000000E+00  0.00000000E+00
  0.00000000E+00  0.00000000E+00  0.00000000E+00
  0.00000000E+00  0.00000000E+00  0.00000000E+00
  0.00000000E+00  0.00000000E+00  0.00000000E+00
  0.00000000E+00  0.00000000E+00  0.00000000E+00
  0.00000000E+00  0.00000000E+00  0.00000000E+00
  0.00000000E+00  0.00000000E+00  0.00000000E+00
  0.00000000E+00  0.00000000E+00  0.00000000E+00
  0.00000000E+00  0.00000000E+00  0.00000000E+00
  0.00000000E+00  0.00000000E+00  0.00000000E+00
