Graphene-BC3 Hollow with lattice paramet
   1.00000000000000     
     4.3682321366887082    2.5219999999999998    0.0000000000000000
    -4.3682321366887082    2.5219999999999998    0.0000000000000000
     0.0000000000000000    0.0000000000000000   15.0000000000000000
   B    C 
     2    14
Direct
  0.3552520815854970  0.6800430774551779  0.1458978937717434
  0.7255121076734884  0.3760725382545251  0.1435874447310238
  0.1840250168036638  0.3340023420005839  0.1600306113687026
  0.3172456985476333  0.1548789337732155  0.1889875673541473
  0.1706932312009668  0.8407342597537539  0.1546061988843402
  0.8766591253460330  0.1900156007493388  0.1244319943776385
  0.7065862351503436  0.8696656504030369  0.1067531231289252
  0.8645146360508813  0.7098389055657647  0.1162511043991829
  0.3203386899848935  0.1524338032227496  0.2925164823632637
  0.4846049732081125 -0.0226304474436560  0.3139849927193282
  0.3178167101084267  0.6522860775271723  0.3116206395760045
  0.4849858303686470  0.4933489684275575  0.3143705551526757
  0.8099603310102306  0.1425366533773697  0.3120910423990402
 -0.0275455359342581 -0.0203661103195045  0.3131048175670467
  0.8087833091911641  0.6538556493116489  0.3126944620448190
 -0.0261071069623914  0.4799427646079604  0.2986710701621189
 
  0.00000000E+00  0.00000000E+00  0.00000000E+00
  0.00000000E+00  0.00000000E+00  0.00000000E+00
  0.00000000E+00  0.00000000E+00  0.00000000E+00
  0.00000000E+00  0.00000000E+00  0.00000000E+00
  0.00000000E+00  0.00000000E+00  0.00000000E+00
  0.00000000E+00  0.00000000E+00  0.00000000E+00
  0.00000000E+00  0.00000000E+00  0.00000000E+00
  0.00000000E+00  0.00000000E+00  0.00000000E+00
  0.00000000E+00  0.00000000E+00  0.00000000E+00
  0.00000000E+00  0.00000000E+00  0.00000000E+00
  0.00000000E+00  0.00000000E+00  0.00000000E+00
  0.00000000E+00  0.00000000E+00  0.00000000E+00
  0.00000000E+00  0.00000000E+00  0.00000000E+00
  0.00000000E+00  0.00000000E+00  0.00000000E+00
  0.00000000E+00  0.00000000E+00  0.00000000E+00
  0.00000000E+00  0.00000000E+00  0.00000000E+00
