Graphene-B4C3 Hollow 1 with lattice para
   1.00000000000000     
     4.1482616841274602    2.3949999999999996    0.0000000000000000
    -4.1482616841274602    2.3949999999999996    0.0000000000000000
     0.0000000000000000    0.0000000000000000   15.0000000000000000
   B    C 
     4    11
Direct
  0.0306258614321276 -0.0210189256472736  0.0959424333685031
  0.3852927825183071 -0.0210304607263767  0.1046437807855324
  0.0305692955682474  0.3335378102151558  0.1045468410845784
  0.6761611909423749  0.6241536522931049  0.1045873639713703
  0.3548100434848358  0.3027698015689047  0.1034350316882001
  0.7067607002133612 -0.0209666456702269  0.1034566303631337
  0.0306138315957223  0.6548842893664797  0.1034730725385618
  0.0879582655516050  0.4097728633873960  0.3363859418615059
  0.2545845706665869  0.2431102480945622  0.3366003654653009
  0.0879475211715501  0.9098084523744329  0.3364041687160199
  0.2546224106282726  0.7431376409810357  0.3364721888290297
  0.5878936554959995  0.4097696034327957  0.3363916758784573
  0.7545590957614002  0.2430990216238748  0.3364435512099134
  0.5878869458110675  0.9097570858780831  0.3365226316018899
  0.7545633847140923  0.7430940072725172  0.3364736559713246
 
  0.00000000E+00  0.00000000E+00  0.00000000E+00
  0.00000000E+00  0.00000000E+00  0.00000000E+00
  0.00000000E+00  0.00000000E+00  0.00000000E+00
  0.00000000E+00  0.00000000E+00  0.00000000E+00
  0.00000000E+00  0.00000000E+00  0.00000000E+00
  0.00000000E+00  0.00000000E+00  0.00000000E+00
  0.00000000E+00  0.00000000E+00  0.00000000E+00
  0.00000000E+00  0.00000000E+00  0.00000000E+00
  0.00000000E+00  0.00000000E+00  0.00000000E+00
  0.00000000E+00  0.00000000E+00  0.00000000E+00
  0.00000000E+00  0.00000000E+00  0.00000000E+00
  0.00000000E+00  0.00000000E+00  0.00000000E+00
  0.00000000E+00  0.00000000E+00  0.00000000E+00
  0.00000000E+00  0.00000000E+00  0.00000000E+00
  0.00000000E+00  0.00000000E+00  0.00000000E+00
