Graphene-B4C3 Bridge with lattice parame
   1.00000000000000     
     4.2045533353734497    2.4275000000000002    0.0000000000000000
    -4.2045533353734497    2.4275000000000002    0.0000000000000000
     0.0000000000000000    0.0000000000000000   15.0000000000000000
   B    C 
     4    11
Direct
  0.0063304151662705  0.0008386141418907  0.1005432946201569
  0.3613825041462337  0.0006763236302293  0.1012062916624119
  0.0065050624088559  0.3559772535681247  0.1014100438662618
  0.6515577085333220  0.6453938221532941  0.1013487947041710
  0.3299893773190492  0.3241169033180129  0.1012355435059013
  0.6829779112910184  0.0005009215119281  0.1011551297572168
  0.0063942647480777  0.6771038866177177  0.1012577198530100
  0.0813685748675267  0.4185487188230038  0.3371228006026062
  0.2480492184307284  0.2518372903967634  0.3372350232160337
  0.0813884126330435  0.9185982289832488  0.3372064815660212
  0.2481114438424443  0.7518559056742630  0.3371051649601386
  0.5813140945724256  0.4185322564009232  0.3371525596131327
  0.7480159133227603  0.2518299990749844  0.3370604856647602
  0.5812775780889520  0.9184959455127103  0.3372096691452710
  0.7479648539626127  0.7517945968596027  0.3371303305962427
 
  0.00000000E+00  0.00000000E+00  0.00000000E+00
  0.00000000E+00  0.00000000E+00  0.00000000E+00
  0.00000000E+00  0.00000000E+00  0.00000000E+00
  0.00000000E+00  0.00000000E+00  0.00000000E+00
  0.00000000E+00  0.00000000E+00  0.00000000E+00
  0.00000000E+00  0.00000000E+00  0.00000000E+00
  0.00000000E+00  0.00000000E+00  0.00000000E+00
  0.00000000E+00  0.00000000E+00  0.00000000E+00
  0.00000000E+00  0.00000000E+00  0.00000000E+00
  0.00000000E+00  0.00000000E+00  0.00000000E+00
  0.00000000E+00  0.00000000E+00  0.00000000E+00
  0.00000000E+00  0.00000000E+00  0.00000000E+00
  0.00000000E+00  0.00000000E+00  0.00000000E+00
  0.00000000E+00  0.00000000E+00  0.00000000E+00
  0.00000000E+00  0.00000000E+00  0.00000000E+00
