Graphene-B4C3 Bridge with lattice parame
   1.00000000000000     
     4.1967591067393899    2.4230000000000000    0.0000000000000000
    -4.1967591067393899    2.4230000000000000    0.0000000000000000
     0.0000000000000000    0.0000000000000000   15.0000000000000000
   B    C 
     4    11
Direct
  0.0226090579591229  0.9852437819584026  0.1037364337815490
  0.3777989307863550  0.9854143515888012  0.0997266166890398
  0.0224536235051218  0.3401869340553816  0.0994748604397699
  0.6675683785318824  0.6301343822442149  0.0995628858296982
  0.3461473147795644  0.3086738337249031  0.0998496663038679
  0.6992287020090941  0.9853693506212053  0.1001080278212001
  0.0225791277239438  0.6617372046613497  0.0998780148320861
  0.0674475111491688  0.4321011891816084  0.3360741024452309
  0.2339400618535024  0.2652568870197030  0.3360948220429094
  0.0671295526738263  0.9320403893812426  0.3360440752138913
  0.2338807283468540  0.7654147635478239  0.3360908870299966
  0.5670276684300148  0.4321463293727064  0.3360862510173064
  0.7337429356891221  0.2652401724959930  0.3360438618783093
  0.5671006059250630  0.9318692370023740  0.3361539973544723
  0.7339731339706930  0.7652718598109942  0.3360548306539854
 
  0.00000000E+00  0.00000000E+00  0.00000000E+00
  0.00000000E+00  0.00000000E+00  0.00000000E+00
  0.00000000E+00  0.00000000E+00  0.00000000E+00
  0.00000000E+00  0.00000000E+00  0.00000000E+00
  0.00000000E+00  0.00000000E+00  0.00000000E+00
  0.00000000E+00  0.00000000E+00  0.00000000E+00
  0.00000000E+00  0.00000000E+00  0.00000000E+00
  0.00000000E+00  0.00000000E+00  0.00000000E+00
  0.00000000E+00  0.00000000E+00  0.00000000E+00
  0.00000000E+00  0.00000000E+00  0.00000000E+00
  0.00000000E+00  0.00000000E+00  0.00000000E+00
  0.00000000E+00  0.00000000E+00  0.00000000E+00
  0.00000000E+00  0.00000000E+00  0.00000000E+00
  0.00000000E+00  0.00000000E+00  0.00000000E+00
  0.00000000E+00  0.00000000E+00  0.00000000E+00
