Graphene-Borophene Bridge with lattice p
   1.00000000000000     
     4.3128065108465039    2.4899999999999998    0.0000000000000000
    -4.3128065108465039    2.4899999999999998    0.0000000000000000
     0.0000000000000000    0.0000000000000000   15.0000000000000000
   B    C 
     8     8
Direct
  0.6697877160735869 -0.0000114399206936  0.1096793005553598
  0.3302693488792144  0.0000122401530876  0.1097036808824585
  0.0000114399206936  0.3302112839264157  0.1096793005553598
 -0.0000122401530876  0.6697296511207881  0.1097036808824585
  0.3302795390994891  0.3302742752088788  0.1097079335067766
  0.6697247247911238  0.6697194609005134  0.1097079335067766
  0.6666575416745457  0.3333414583254567  0.1087115939926915
  0.3333249125208445  0.6666740874791581  0.1125190853258200
  0.2510757905929562  0.2515374749992714  0.4592159962557468
  0.4177728925238217  0.0827381987854734  0.4590617155494801
  0.2499649355286556  0.7500340644713468  0.4589582188341393
  0.4165812184695085  0.5834177815304942  0.4591274732586683
  0.7489891083511565  0.2510098916488461  0.4591676385941078
  0.9165104121789340  0.0834885878210684  0.4593120698283013
  0.7484615250007312  0.7489232094070465  0.4592159962557468
  0.9172608012145292  0.5822261074761806  0.4590617155494801
 
  0.00000000E+00  0.00000000E+00  0.00000000E+00
  0.00000000E+00  0.00000000E+00  0.00000000E+00
  0.00000000E+00  0.00000000E+00  0.00000000E+00
  0.00000000E+00  0.00000000E+00  0.00000000E+00
  0.00000000E+00  0.00000000E+00  0.00000000E+00
  0.00000000E+00  0.00000000E+00  0.00000000E+00
  0.00000000E+00  0.00000000E+00  0.00000000E+00
  0.00000000E+00  0.00000000E+00  0.00000000E+00
  0.00000000E+00  0.00000000E+00  0.00000000E+00
  0.00000000E+00  0.00000000E+00  0.00000000E+00
  0.00000000E+00  0.00000000E+00  0.00000000E+00
  0.00000000E+00  0.00000000E+00  0.00000000E+00
  0.00000000E+00  0.00000000E+00  0.00000000E+00
  0.00000000E+00  0.00000000E+00  0.00000000E+00
  0.00000000E+00  0.00000000E+00  0.00000000E+00
  0.00000000E+00  0.00000000E+00  0.00000000E+00
