Graphene-Borophene Bridge with lattice p
   1.00000000000000     
     4.3128065108465039    2.4899999999999998    0.0000000000000000
    -4.3128065108465039    2.4899999999999998    0.0000000000000000
     0.0000000000000000    0.0000000000000000   15.0000000000000000
   B    C 
     8     8
Direct
  0.6698521425601084 -0.0001132923729642  0.1548218882119261
  0.3303510858644231 -0.0000169067163486  0.1549580268902449
  0.0001132923729642  0.3301468574398942  0.1548218882119261
  0.0000169067163486  0.6696479141355794  0.1549580268902449
  0.3303976475792753  0.3304114732262837  0.1549812285856588
  0.6695875267737189  0.6696013524207272  0.1549812285856588
  0.6666485350754842  0.3333504649245183  0.1528936113046345
  0.3332903652862558  0.6667086347137468  0.1671830610402233
  0.2525922256340421  0.2528363954541575  0.4132619927682229
  0.4185233030410474  0.0824566500410690  0.4124597879838962
  0.2503195516374324  0.7496794483625701  0.4119239186810162
  0.4160575384960151  0.5839414615039875  0.4127968030867453
  0.7482964169662013  0.2517025830338013  0.4130096271737731
  0.9159081741586080  0.0840908258413944  0.4137604631670817
  0.7471626045458450  0.7474067743659605  0.4132619927682228
  0.9175423499589337  0.5814756969589550  0.4124597879838962
 
  0.00000000E+00  0.00000000E+00  0.00000000E+00
  0.00000000E+00  0.00000000E+00  0.00000000E+00
  0.00000000E+00  0.00000000E+00  0.00000000E+00
  0.00000000E+00  0.00000000E+00  0.00000000E+00
  0.00000000E+00  0.00000000E+00  0.00000000E+00
  0.00000000E+00  0.00000000E+00  0.00000000E+00
  0.00000000E+00  0.00000000E+00  0.00000000E+00
  0.00000000E+00  0.00000000E+00  0.00000000E+00
  0.00000000E+00  0.00000000E+00  0.00000000E+00
  0.00000000E+00  0.00000000E+00  0.00000000E+00
  0.00000000E+00  0.00000000E+00  0.00000000E+00
  0.00000000E+00  0.00000000E+00  0.00000000E+00
  0.00000000E+00  0.00000000E+00  0.00000000E+00
  0.00000000E+00  0.00000000E+00  0.00000000E+00
  0.00000000E+00  0.00000000E+00  0.00000000E+00
  0.00000000E+00  0.00000000E+00  0.00000000E+00
