Graphene-Borophene Top with lattice para
   1.00000000000000     
     4.3301270189221919    2.4999999999999991    0.0000000000000000
    -4.3301270189221919    2.4999999999999991    0.0000000000000000
     0.0000000000000000    0.0000000000000000   15.0000000000000000
   B    C 
     8     8
Direct
  0.6687377443710184 -0.0003022352306734  0.1667890227668701
  0.3309590203983103 -0.0003022352306734  0.1667890227668701
  0.0003022352306734  0.3312612556289837  0.1667890227668701
  0.0003022352306734  0.6690399796016925  0.1667890227668701
  0.3309590203983103  0.3312612556289837  0.1667890227668701
  0.6687377443710184  0.6690399796016925  0.1667890227668701
  0.6666659999999993  0.3333330000000032  0.1784889339787097
  0.3333330000000032  0.6666659999999993  0.1562052511677825
  0.1667044272557449  0.3334098545114943  0.4005183871743601
  0.3334908917293536  0.1667449458646745  0.4008874002018717
  0.1667044272557449  0.8332945727442572  0.4005183871743601
  0.3333330000000032  0.6666659999999993  0.4010686400775718
  0.6666659999999993  0.3333330000000032  0.4011523427127127
  0.8332540541353279  0.1667449458646745  0.4008874002018717
  0.6665891454885080  0.8332945727442572  0.4005183871743601
  0.8332540541353279  0.6665081082706490  0.4008874002018717
 
  0.00000000E+00  0.00000000E+00  0.00000000E+00
  0.00000000E+00  0.00000000E+00  0.00000000E+00
  0.00000000E+00  0.00000000E+00  0.00000000E+00
  0.00000000E+00  0.00000000E+00  0.00000000E+00
  0.00000000E+00  0.00000000E+00  0.00000000E+00
  0.00000000E+00  0.00000000E+00  0.00000000E+00
  0.00000000E+00  0.00000000E+00  0.00000000E+00
  0.00000000E+00  0.00000000E+00  0.00000000E+00
  0.00000000E+00  0.00000000E+00  0.00000000E+00
  0.00000000E+00  0.00000000E+00  0.00000000E+00
  0.00000000E+00  0.00000000E+00  0.00000000E+00
  0.00000000E+00  0.00000000E+00  0.00000000E+00
  0.00000000E+00  0.00000000E+00  0.00000000E+00
  0.00000000E+00  0.00000000E+00  0.00000000E+00
  0.00000000E+00  0.00000000E+00  0.00000000E+00
  0.00000000E+00  0.00000000E+00  0.00000000E+00
