Graphene-BC3 Top with lattice parameter 
   1.00000000000000     
     4.3128065108465039    2.4899999999999998    0.0000000000000000
    -4.3128065108465039    2.4899999999999998    0.0000000000000000
     0.0000000000000000    0.0000000000000000   15.0000000000000000
   B    C 
     2    14
Direct
  0.3388341737811804  0.6695238151820321  0.1008177398450863
  0.6721801360498559  0.3361935139865368  0.1007976263613364
  0.1656694970611954  0.3228137401344099  0.0997475120065134
  0.3256069474292687  0.1627239587911934  0.0991618415538520
  0.1656191798645834  0.8427717371476124  0.0997474322188098
  0.8455733567292576  0.1627861327306089  0.1010113734591643
  0.6856017626485572  0.8427084679512707  0.1015983464783898
  0.8456157213420855  0.6827647930926489  0.1010127207889433
  0.1659833236262516  0.3328494145691368  0.3283491650331719
  0.3325508646496316  0.1662901613825228  0.3283454890164087
  0.1659843192628085  0.8331345743193764  0.3283489614091678
  0.3327395897132655  0.6663837659790632  0.3281756487312339
  0.6660823104724394  0.3330430685960498  0.3281710964072315
  0.8328359936850473  0.1662854898668291  0.3283703085330757
  0.6662792061076841  0.8331408710232053  0.3283741588507252
  0.8328356175769079  0.6665784952475110  0.3283705793069100
 
  0.00000000E+00  0.00000000E+00  0.00000000E+00
  0.00000000E+00  0.00000000E+00  0.00000000E+00
  0.00000000E+00  0.00000000E+00  0.00000000E+00
  0.00000000E+00  0.00000000E+00  0.00000000E+00
  0.00000000E+00  0.00000000E+00  0.00000000E+00
  0.00000000E+00  0.00000000E+00  0.00000000E+00
  0.00000000E+00  0.00000000E+00  0.00000000E+00
  0.00000000E+00  0.00000000E+00  0.00000000E+00
  0.00000000E+00  0.00000000E+00  0.00000000E+00
  0.00000000E+00  0.00000000E+00  0.00000000E+00
  0.00000000E+00  0.00000000E+00  0.00000000E+00
  0.00000000E+00  0.00000000E+00  0.00000000E+00
  0.00000000E+00  0.00000000E+00  0.00000000E+00
  0.00000000E+00  0.00000000E+00  0.00000000E+00
  0.00000000E+00  0.00000000E+00  0.00000000E+00
  0.00000000E+00  0.00000000E+00  0.00000000E+00
