Graphene-B4C3 Hollow 2 with lattice para
   1.00000000000000     
     4.1906969289128986    2.4195000000000002    0.0000000000000000
    -4.1906969289128986    2.4195000000000002    0.0000000000000000
     0.0000000000000000    0.0000000000000000   15.0000000000000000
   B    C 
     4    11
Direct
  0.0042788784931982  0.0028405328581553  0.1002693227771968
  0.3594436177642004  0.0028514996605839  0.1013261065791381
  0.0042937297758584  0.3580071297333366  0.1013285132423713
  0.6491175796920946  0.6476739363703703  0.1013291366713158
  0.3280113308294865  0.3265778721007337  0.1011686172518315
  0.6805443761089788  0.0028306909217954  0.1011415301561855
  0.0042687943513450  0.6791024154274136  0.1011363691547181
  0.1665563214018410  0.3332810305882523  0.3379722460923634
  0.3332550266202426  0.1665874764680613  0.3379739021321178
  0.1666057173678446  0.8332928054846033  0.3379755358954600
  0.3332576313405864  0.6666172507465893  0.3378546749623476
  0.6665930489622790  0.3332809231147482  0.3378546826494629
  0.8332659638543873  0.1666304933402750  0.3379750665946751
  0.6665836429263237  0.8332506485776856  0.3379707265951806
  0.8332183405113412  0.6666092946074067  0.3379695692456631
 
  0.00000000E+00  0.00000000E+00  0.00000000E+00
  0.00000000E+00  0.00000000E+00  0.00000000E+00
  0.00000000E+00  0.00000000E+00  0.00000000E+00
  0.00000000E+00  0.00000000E+00  0.00000000E+00
  0.00000000E+00  0.00000000E+00  0.00000000E+00
  0.00000000E+00  0.00000000E+00  0.00000000E+00
  0.00000000E+00  0.00000000E+00  0.00000000E+00
  0.00000000E+00  0.00000000E+00  0.00000000E+00
  0.00000000E+00  0.00000000E+00  0.00000000E+00
  0.00000000E+00  0.00000000E+00  0.00000000E+00
  0.00000000E+00  0.00000000E+00  0.00000000E+00
  0.00000000E+00  0.00000000E+00  0.00000000E+00
  0.00000000E+00  0.00000000E+00  0.00000000E+00
  0.00000000E+00  0.00000000E+00  0.00000000E+00
  0.00000000E+00  0.00000000E+00  0.00000000E+00
