Graphene-B4C3 Hollow 2 with lattice para
   1.00000000000000     
     4.2435244785437485    2.4499999999999997    0.0000000000000000
    -4.2435244785437485    2.4499999999999997    0.0000000000000000
     0.0000000000000000    0.0000000000000000   15.0000000000000000
   B    C 
     4    11
Direct
  0.0043934625247049  0.0029159586231991  0.0997334173362151
  0.3594999800944868  0.0029257983374693  0.1004552628957792
  0.0044075214474971  0.3580220533867712  0.1004573004271516
  0.6492960268050924  0.6478139537839031  0.1004615146857009
  0.3275615620139710  0.3260821478532214  0.1003066784903014
  0.6812375555151313  0.0029192945913045  0.1003132454233687
  0.0043983749754555  0.6797551432437196  0.1003149168105573
  0.1664552769962957  0.3332063283291708  0.3386744641787719
  0.3331439497570091  0.1665179234240522  0.3386760828568541
  0.1665005805123855  0.8332303814478478  0.3386784262162195
  0.3331461471200803  0.6665434970300766  0.3385744957472474
  0.6664807101860599  0.3332076824452211  0.3385745438555051
  0.8331671956401915  0.1665623942748386  0.3386777015290652
  0.6664812576061255  0.8331875985603887  0.3386745140036501
  0.8331243988055207  0.6665438446688262  0.3386734355436388
 
  0.00000000E+00  0.00000000E+00  0.00000000E+00
  0.00000000E+00  0.00000000E+00  0.00000000E+00
  0.00000000E+00  0.00000000E+00  0.00000000E+00
  0.00000000E+00  0.00000000E+00  0.00000000E+00
  0.00000000E+00  0.00000000E+00  0.00000000E+00
  0.00000000E+00  0.00000000E+00  0.00000000E+00
  0.00000000E+00  0.00000000E+00  0.00000000E+00
  0.00000000E+00  0.00000000E+00  0.00000000E+00
  0.00000000E+00  0.00000000E+00  0.00000000E+00
  0.00000000E+00  0.00000000E+00  0.00000000E+00
  0.00000000E+00  0.00000000E+00  0.00000000E+00
  0.00000000E+00  0.00000000E+00  0.00000000E+00
  0.00000000E+00  0.00000000E+00  0.00000000E+00
  0.00000000E+00  0.00000000E+00  0.00000000E+00
  0.00000000E+00  0.00000000E+00  0.00000000E+00
