Graphene-Borophene Bridge with lattice p
   1.00000000000000     
     4.3102084346351512    2.4885000000000002    0.0000000000000000
    -4.3102084346351512    2.4885000000000002    0.0000000000000000
     0.0000000000000000    0.0000000000000000   15.0000000000000000
   B    C 
     8     8
Direct
  0.6707495198637469 -0.0021648635560080  0.1671222474961987
  0.3332992659969345 -0.0020501076182979  0.1670584549815227
  0.0021648635560080  0.3292494801362564  0.1671222474961987
  0.0020501076182979  0.6666997340030681  0.1670584549815227
  0.3331514003579448  0.3291968559770768  0.1662236392613212
  0.6708021440229258  0.6668475996420575  0.1662236392613211
  0.6684271129055136  0.3315718870944891  0.1553233647319413
  0.3351015773364442  0.6648974226635592  0.1794064121951731
  0.2480402939429671  0.2519661274905298  0.4020860438236792
  0.4147064794709395  0.0853178798664551  0.4021432647211042
  0.2480298021670315  0.7519691978329711  0.4022261060541333
  0.4147340090056842  0.5852649909943179  0.4022410235874220
  0.7480076863393711  0.2519913136606316  0.4021043659439146
  0.9146814114398747  0.0853175885601277  0.4019647602531353
  0.7480328725094721  0.7519587060570352  0.4020860438236792
  0.9146811201335475  0.5852925205290637  0.4021432647211042
 
  0.00000000E+00  0.00000000E+00  0.00000000E+00
  0.00000000E+00  0.00000000E+00  0.00000000E+00
  0.00000000E+00  0.00000000E+00  0.00000000E+00
  0.00000000E+00  0.00000000E+00  0.00000000E+00
  0.00000000E+00  0.00000000E+00  0.00000000E+00
  0.00000000E+00  0.00000000E+00  0.00000000E+00
  0.00000000E+00  0.00000000E+00  0.00000000E+00
  0.00000000E+00  0.00000000E+00  0.00000000E+00
  0.00000000E+00  0.00000000E+00  0.00000000E+00
  0.00000000E+00  0.00000000E+00  0.00000000E+00
  0.00000000E+00  0.00000000E+00  0.00000000E+00
  0.00000000E+00  0.00000000E+00  0.00000000E+00
  0.00000000E+00  0.00000000E+00  0.00000000E+00
  0.00000000E+00  0.00000000E+00  0.00000000E+00
  0.00000000E+00  0.00000000E+00  0.00000000E+00
  0.00000000E+00  0.00000000E+00  0.00000000E+00
