Graphene-Borophene Bridge with lattice p
   1.00000000000000     
     4.3102084346351512    2.4885000000000002    0.0000000000000000
    -4.3102084346351512    2.4885000000000002    0.0000000000000000
     0.0000000000000000    0.0000000000000000   15.0000000000000000
   B    C 
     8     8
Direct
  0.6708376809192569 -0.0022265633028730  0.1671591878112133
  0.3334054496496646 -0.0021184861369144  0.1670968613303248
  0.0022265633028730  0.3291613190807463  0.1671591878112133
  0.0021184861369144  0.6665935503503381  0.1670968613303248
  0.3332622412513897  0.3290856575609571  0.1662616765219775
  0.6709133424390455  0.6667367587486126  0.1662616765219775
  0.6685375628145463  0.3314614371854564  0.1553714193827841
  0.3352189663822306  0.6647800336177728  0.1793653612239079
  0.2479100690885258  0.2520392074565815  0.4020569936682581
  0.4146020828469703  0.0854059349453170  0.4021008135284040
  0.2479375170928141  0.7520614829071884  0.4021832395356915
  0.4146498347596171  0.5853491652403852  0.4022160629839662
  0.7478981931627633  0.2521008068372394  0.4020887768057101
  0.9145888192219858  0.0854101807780168  0.4019574076809567
  0.7479597925434204  0.7520889309114764  0.4020569936682581
  0.9145930650546856  0.5853969171530330  0.4021008135284040
 
  0.00000000E+00  0.00000000E+00  0.00000000E+00
  0.00000000E+00  0.00000000E+00  0.00000000E+00
  0.00000000E+00  0.00000000E+00  0.00000000E+00
  0.00000000E+00  0.00000000E+00  0.00000000E+00
  0.00000000E+00  0.00000000E+00  0.00000000E+00
  0.00000000E+00  0.00000000E+00  0.00000000E+00
  0.00000000E+00  0.00000000E+00  0.00000000E+00
  0.00000000E+00  0.00000000E+00  0.00000000E+00
  0.00000000E+00  0.00000000E+00  0.00000000E+00
  0.00000000E+00  0.00000000E+00  0.00000000E+00
  0.00000000E+00  0.00000000E+00  0.00000000E+00
  0.00000000E+00  0.00000000E+00  0.00000000E+00
  0.00000000E+00  0.00000000E+00  0.00000000E+00
  0.00000000E+00  0.00000000E+00  0.00000000E+00
  0.00000000E+00  0.00000000E+00  0.00000000E+00
  0.00000000E+00  0.00000000E+00  0.00000000E+00
