Graphene-B4C3 Hollow 2 with lattice para
   1.00000000000000     
     4.1967591067393890    2.4229999999999996    0.0000000000000000
    -4.1967591067393890    2.4229999999999996    0.0000000000000000
     0.0000000000000000    0.0000000000000000   15.0000000000000000
   B    C 
     4    11
Direct
  0.0041699077387651  0.0027131691714654  0.1196258599559608
  0.3563961143833327  0.0028278838715597  0.0976781203510261
  0.0042158458067184  0.3549565583641460  0.0976813544391674
  0.6519651151431899  0.6505912581032208  0.0976700545091545
  0.3263182921297202  0.3249324567633330  0.1003136074214349
  0.6820565349062210  0.0027918642603304  0.1002896840928472
  0.0041848850816483  0.6806307228974844  0.1002815873954400
  0.1666277027407920  0.3333803961426445  0.3372321269129842
  0.3333806258500585  0.1666291327525873  0.3372326740081288
  0.1667475937967234  0.8333644183909339  0.3372335726319049
  0.3333339999041127  0.6666692505319972  0.3371548357722555
  0.6666687981206554  0.3333321450203583  0.3371548273760728
  0.8333630208118443  0.1667463396918328  0.3372335086488060
  0.6666175475994747  0.8332504630346836  0.3372323373902473
  0.8332480159867510  0.6666179410034337  0.3372318490945965
 
  0.00000000E+00  0.00000000E+00  0.00000000E+00
  0.00000000E+00  0.00000000E+00  0.00000000E+00
  0.00000000E+00  0.00000000E+00  0.00000000E+00
  0.00000000E+00  0.00000000E+00  0.00000000E+00
  0.00000000E+00  0.00000000E+00  0.00000000E+00
  0.00000000E+00  0.00000000E+00  0.00000000E+00
  0.00000000E+00  0.00000000E+00  0.00000000E+00
  0.00000000E+00  0.00000000E+00  0.00000000E+00
  0.00000000E+00  0.00000000E+00  0.00000000E+00
  0.00000000E+00  0.00000000E+00  0.00000000E+00
  0.00000000E+00  0.00000000E+00  0.00000000E+00
  0.00000000E+00  0.00000000E+00  0.00000000E+00
  0.00000000E+00  0.00000000E+00  0.00000000E+00
  0.00000000E+00  0.00000000E+00  0.00000000E+00
  0.00000000E+00  0.00000000E+00  0.00000000E+00
