Graphene-B4C3 Hollow 2 with lattice para
   1.00000000000000     
     4.1967591067393890    2.4229999999999996    0.0000000000000000
    -4.1967591067393890    2.4229999999999996    0.0000000000000000
     0.0000000000000000    0.0000000000000000   15.0000000000000000
   B    C 
     4    11
Direct
  0.0042619929269042  0.0028640423975866  0.1036374929243993
  0.3593540491675118  0.0028297330337410  0.1008854536791699
  0.0042607280597553  0.3579174070980695  0.1008874530572341
  0.6490636458148424  0.6476501531620636  0.1009070705830076
  0.3276069475637557  0.3262036847486713  0.1013363160282055
  0.6807994182993186  0.0028103473207791  0.1013785766639735
  0.0042268877143560  0.6793490800222806  0.1013870083592128
  0.1664809460852490  0.3332622621297079  0.3376098968592245
  0.3332518490653455  0.1664873658862543  0.3376113081324498
  0.1667341527343866  0.8334770232672351  0.3376122816869330
  0.3332961454881883  0.6666297533205915  0.3375827011518606
  0.6666122840165475  0.3333090495613985  0.3375827392843377
  0.8334674777418206  0.1667506695064406  0.3376111035624713
  0.6666673921500950  0.8332104647729326  0.3376083779090677
  0.8332100831719310  0.6666829637722587  0.3376082201184796
 
  0.00000000E+00  0.00000000E+00  0.00000000E+00
  0.00000000E+00  0.00000000E+00  0.00000000E+00
  0.00000000E+00  0.00000000E+00  0.00000000E+00
  0.00000000E+00  0.00000000E+00  0.00000000E+00
  0.00000000E+00  0.00000000E+00  0.00000000E+00
  0.00000000E+00  0.00000000E+00  0.00000000E+00
  0.00000000E+00  0.00000000E+00  0.00000000E+00
  0.00000000E+00  0.00000000E+00  0.00000000E+00
  0.00000000E+00  0.00000000E+00  0.00000000E+00
  0.00000000E+00  0.00000000E+00  0.00000000E+00
  0.00000000E+00  0.00000000E+00  0.00000000E+00
  0.00000000E+00  0.00000000E+00  0.00000000E+00
  0.00000000E+00  0.00000000E+00  0.00000000E+00
  0.00000000E+00  0.00000000E+00  0.00000000E+00
  0.00000000E+00  0.00000000E+00  0.00000000E+00
