Graphene-B4C3 Top with lattice parameter
   1.00000000000000     
     4.1482616841274602    2.3949999999999996    0.0000000000000000
    -4.1482616841274602    2.3949999999999996    0.0000000000000000
     0.0000000000000000    0.0000000000000000   15.0000000000000000
   B    C 
     4    11
Direct
  0.0040381123019612  0.0026840620036831  0.1106536075852938
  0.3585329139204381  0.0028920690901463  0.0989153835987043
  0.0038238282797215  0.3569662646526551  0.0989158377021824
  0.6497533644425237  0.6481874749250850  0.0989127079644859
  0.3279470264668230  0.3263670047957333  0.1002377301637665
  0.6803524802889989  0.0029037856446854  0.1002349666962981
  0.0038098525145279  0.6787722122275740  0.1002315006833742
  0.0001471896984864  0.5000804747550547  0.3344324422343671
  0.1668165796959036  0.3334910390295469  0.3344752625421787
  0.0001293323820592  0.0000817572286415  0.3343667061866513
  0.1668500475111876  0.8333953119374401  0.3344790654700605
  0.5001338249433470  0.5001046018835793  0.3344354727391691
  0.6667960861539940  0.3334166021146618  0.3343161036557552
  0.5001088765160212  0.0000643245099251  0.3344309985180282
  0.6667211515507001  0.8333603485349136  0.3344748809263670
 
  0.00000000E+00  0.00000000E+00  0.00000000E+00
  0.00000000E+00  0.00000000E+00  0.00000000E+00
  0.00000000E+00  0.00000000E+00  0.00000000E+00
  0.00000000E+00  0.00000000E+00  0.00000000E+00
  0.00000000E+00  0.00000000E+00  0.00000000E+00
  0.00000000E+00  0.00000000E+00  0.00000000E+00
  0.00000000E+00  0.00000000E+00  0.00000000E+00
  0.00000000E+00  0.00000000E+00  0.00000000E+00
  0.00000000E+00  0.00000000E+00  0.00000000E+00
  0.00000000E+00  0.00000000E+00  0.00000000E+00
  0.00000000E+00  0.00000000E+00  0.00000000E+00
  0.00000000E+00  0.00000000E+00  0.00000000E+00
  0.00000000E+00  0.00000000E+00  0.00000000E+00
  0.00000000E+00  0.00000000E+00  0.00000000E+00
  0.00000000E+00  0.00000000E+00  0.00000000E+00
