Graphene-Borophene Bridge with lattice p
   1.00000000000000     
     4.3110744600389355    2.4889999999999999    0.0000000000000000
    -4.3110744600389355    2.4889999999999999    0.0000000000000000
     0.0000000000000000    0.0000000000000000   15.0000000000000000
   B    C 
     8     8
Direct
  0.6698491842038607 -0.0001186688319774  0.1554470110995959
  0.3303508279563920 -0.0000201155087259  0.1555841149700705
  0.0001186688319774  0.3301498157961418  0.1554470110995959
  0.0000201155087259  0.6696481720436104  0.1555841149700705
  0.3303989954258991  0.3304174657160774  0.1556074720880394
  0.6695815342839250  0.6696000045741035  0.1556074720880394
  0.6666495916970478  0.3333494083029548  0.1525098906722488
  0.3332901209159178  0.6667088790840848  0.1687821310865986
  0.2526113754171759  0.2528559586315524  0.4126457662778512
  0.4185363523130669  0.0824532397096943  0.4118334418462817
  0.2503235673649891  0.7496754326350135  0.4112905622768366
  0.4160532429336959  0.5839457570663066  0.4121743724472494
  0.7482862656488133  0.2517127343511895  0.4123897209853223
  0.9159010225064586  0.0840979774935440  0.4131510433014391
  0.7471430413684501  0.7473876245828265  0.4126457662778512
  0.9175457602903081  0.5814626476869356  0.4118334418462817
 
  0.00000000E+00  0.00000000E+00  0.00000000E+00
  0.00000000E+00  0.00000000E+00  0.00000000E+00
  0.00000000E+00  0.00000000E+00  0.00000000E+00
  0.00000000E+00  0.00000000E+00  0.00000000E+00
  0.00000000E+00  0.00000000E+00  0.00000000E+00
  0.00000000E+00  0.00000000E+00  0.00000000E+00
  0.00000000E+00  0.00000000E+00  0.00000000E+00
  0.00000000E+00  0.00000000E+00  0.00000000E+00
  0.00000000E+00  0.00000000E+00  0.00000000E+00
  0.00000000E+00  0.00000000E+00  0.00000000E+00
  0.00000000E+00  0.00000000E+00  0.00000000E+00
  0.00000000E+00  0.00000000E+00  0.00000000E+00
  0.00000000E+00  0.00000000E+00  0.00000000E+00
  0.00000000E+00  0.00000000E+00  0.00000000E+00
  0.00000000E+00  0.00000000E+00  0.00000000E+00
  0.00000000E+00  0.00000000E+00  0.00000000E+00
