Graphene-Borophene Bridge with lattice p
   1.00000000000000     
     4.3110744600389355    2.4889999999999999    0.0000000000000000
    -4.3110744600389355    2.4889999999999999    0.0000000000000000
     0.0000000000000000    0.0000000000000000   15.0000000000000000
   B    C 
     8     8
Direct
  0.6698045785906188 -0.0000125863951370  0.1101112659518711
  0.3302534469153466  0.0000120630237210  0.1101366019971799
  0.0000125863951370  0.3301944214093838  0.1101112659518711
 -0.0000120630237210  0.6697455530846558  0.1101366019971799
  0.3302641666155625  0.3302593383830781  0.1101410170660445
  0.6697396616169243  0.6697348333844401  0.1101410170660445
  0.6666577436371750  0.3333412563628276  0.1089525210274631
  0.3333246540164755  0.6666743459835270  0.1131952819202156
  0.2510864823759669  0.2515484826139426  0.4587799965978774
  0.4177806559351470  0.0827389532290475  0.4586193884710485
  0.2499685058691521  0.7500304941308504  0.4585116033545512
  0.4165786367963309  0.5834203632036716  0.4586877276554545
  0.7489846564156581  0.2510143435843446  0.4587295351113798
  0.9165053903539149  0.0834936096460876  0.4588801240962654
  0.7484505173860598  0.7489125176240355  0.4587799965978774
  0.9172600467709549  0.5822183440648555  0.4586193884710485
 
  0.00000000E+00  0.00000000E+00  0.00000000E+00
  0.00000000E+00  0.00000000E+00  0.00000000E+00
  0.00000000E+00  0.00000000E+00  0.00000000E+00
  0.00000000E+00  0.00000000E+00  0.00000000E+00
  0.00000000E+00  0.00000000E+00  0.00000000E+00
  0.00000000E+00  0.00000000E+00  0.00000000E+00
  0.00000000E+00  0.00000000E+00  0.00000000E+00
  0.00000000E+00  0.00000000E+00  0.00000000E+00
  0.00000000E+00  0.00000000E+00  0.00000000E+00
  0.00000000E+00  0.00000000E+00  0.00000000E+00
  0.00000000E+00  0.00000000E+00  0.00000000E+00
  0.00000000E+00  0.00000000E+00  0.00000000E+00
  0.00000000E+00  0.00000000E+00  0.00000000E+00
  0.00000000E+00  0.00000000E+00  0.00000000E+00
  0.00000000E+00  0.00000000E+00  0.00000000E+00
  0.00000000E+00  0.00000000E+00  0.00000000E+00
