Graphene-B4C3 Top with lattice parameter
   1.00000000000000     
     4.1924289797204670    2.4205000000000001    0.0000000000000000
    -4.1924289797204670    2.4205000000000001    0.0000000000000000
     0.0000000000000000    0.0000000000000000   15.0000000000000000
   B    C 
     4    11
Direct
  0.0040537573987935  0.0026850169551431  0.1015277433115722
  0.3592301137673701  0.0029631768519005  0.1005452008950264
  0.0037804856807604  0.3575984466884490  0.1005455869425672
  0.6491619009503398  0.6475294223818601  0.1005435495026109
  0.3278382633804894  0.3262036851946606  0.1006008884208910
  0.6805538934790147  0.0029680355104381  0.1005799122110843
  0.0037894467253067  0.6789259002542072  0.1005780945587069
  0.0001310322429336  0.5000624268816861  0.3348249911852406
  0.1667805451968567  0.3334522035386201  0.3348662592868971
  0.0001109145244618  0.0000692748210559  0.3347940470556447
  0.1668228102795873  0.8334006135833462  0.3348683548468716
  0.5001201965005678  0.5000997651807769  0.3348285941164062
  0.6667774404327489  0.3334042387617375  0.3347217033260138
  0.5000813719118546  0.0000490791153864  0.3348224261692333
  0.6667284941956071  0.8333560476140578  0.3348653148379160
 
  0.00000000E+00  0.00000000E+00  0.00000000E+00
  0.00000000E+00  0.00000000E+00  0.00000000E+00
  0.00000000E+00  0.00000000E+00  0.00000000E+00
  0.00000000E+00  0.00000000E+00  0.00000000E+00
  0.00000000E+00  0.00000000E+00  0.00000000E+00
  0.00000000E+00  0.00000000E+00  0.00000000E+00
  0.00000000E+00  0.00000000E+00  0.00000000E+00
  0.00000000E+00  0.00000000E+00  0.00000000E+00
  0.00000000E+00  0.00000000E+00  0.00000000E+00
  0.00000000E+00  0.00000000E+00  0.00000000E+00
  0.00000000E+00  0.00000000E+00  0.00000000E+00
  0.00000000E+00  0.00000000E+00  0.00000000E+00
  0.00000000E+00  0.00000000E+00  0.00000000E+00
  0.00000000E+00  0.00000000E+00  0.00000000E+00
  0.00000000E+00  0.00000000E+00  0.00000000E+00
