Graphene-Borophene Bridge with lattice p
   1.00000000000000     
     4.3119404854427197    2.4895000000000000    0.0000000000000000
    -4.3119404854427197    2.4895000000000000    0.0000000000000000
     0.0000000000000000    0.0000000000000000   15.0000000000000000
   B    C 
     8     8
Direct
  0.6696300889654142 -0.0001144044071446  0.0999894654888347
  0.3304013383495123 -0.0000120695935975  0.1000029954480100
  0.0001144044071446  0.3303689110345884  0.0999894654888347
  0.0000120695935975  0.6695976616504903  0.1000029954480100
  0.3303549472035313  0.3302758780732969  0.1000036760087036
  0.6697231219267056  0.6696440527964712  0.1000036760087036
  0.6665528995146071  0.3334461004853955  0.0992136439263326
  0.3332474658057291  0.6667515341942735  0.1007844336143602
  0.2500055885655617  0.2500184733516898  0.3353284746508162
  0.4166714523928390  0.0833661204689856  0.3353437333147835
  0.2499857392230465  0.7500132607769560  0.3353253660417424
  0.4166927570209234  0.5833062429790791  0.3353535232952349
  0.7499931490042083  0.2500058509957940  0.3353464120721159
  0.9166612385145532  0.0833377614854493  0.3353065978945777
  0.7499805266483126  0.7499934114344409  0.3353284746508162
  0.9166328795310169  0.5833275476071634  0.3353437333147835
 
  0.00000000E+00  0.00000000E+00  0.00000000E+00
  0.00000000E+00  0.00000000E+00  0.00000000E+00
  0.00000000E+00  0.00000000E+00  0.00000000E+00
  0.00000000E+00  0.00000000E+00  0.00000000E+00
  0.00000000E+00  0.00000000E+00  0.00000000E+00
  0.00000000E+00  0.00000000E+00  0.00000000E+00
  0.00000000E+00  0.00000000E+00  0.00000000E+00
  0.00000000E+00  0.00000000E+00  0.00000000E+00
  0.00000000E+00  0.00000000E+00  0.00000000E+00
  0.00000000E+00  0.00000000E+00  0.00000000E+00
  0.00000000E+00  0.00000000E+00  0.00000000E+00
  0.00000000E+00  0.00000000E+00  0.00000000E+00
  0.00000000E+00  0.00000000E+00  0.00000000E+00
  0.00000000E+00  0.00000000E+00  0.00000000E+00
  0.00000000E+00  0.00000000E+00  0.00000000E+00
  0.00000000E+00  0.00000000E+00  0.00000000E+00
