Graphene-B4C3 Top with lattice parameter
   1.00000000000000     
     4.1931938984521162    2.4205519154883390    0.0253792346099027
    -4.1930317449317274    2.4202712638287189    0.0056268921696299
     0.0319533013345449    0.0870648575680119    7.5377641302989948
   B    C 
     4    11
Direct
  0.0025172875744695  0.0018771617082279 -0.0132979471990967
  0.3579274156154080  0.0026621675206081 -0.0358985044579958
  0.0030852782897621  0.3566481783623974 -0.0356081319485298
  0.6489729199972104  0.6478181830158813 -0.0369828799035066
  0.3264985775769326  0.3258788238756765 -0.0311425000122281
  0.6797491949620923  0.0018675622405281 -0.0349976905760588
  0.0029025754849368  0.6788079824722341 -0.0356717321639152
  0.0013248994712630  0.5007051577620756  0.4507968040728922
  0.1675955917696431  0.3336704273180313  0.4502269072371439
  0.0010064359216649  0.0005998001496099  0.4494328074048243
  0.1673356261026030  0.8336938929791601  0.4501392732587484
  0.5006621314873425  0.5004662404761832  0.4508285360029546
  0.6675994124045095  0.3338916228322555  0.4514453099140710
  0.5009591516743354  0.0001884667790832  0.4508271587770762
  0.6678241683345212  0.8339916658413741  0.4502152562603111
 
  0.00000000E+00  0.00000000E+00  0.00000000E+00
  0.00000000E+00  0.00000000E+00  0.00000000E+00
  0.00000000E+00  0.00000000E+00  0.00000000E+00
  0.00000000E+00  0.00000000E+00  0.00000000E+00
  0.00000000E+00  0.00000000E+00  0.00000000E+00
  0.00000000E+00  0.00000000E+00  0.00000000E+00
  0.00000000E+00  0.00000000E+00  0.00000000E+00
  0.00000000E+00  0.00000000E+00  0.00000000E+00
  0.00000000E+00  0.00000000E+00  0.00000000E+00
  0.00000000E+00  0.00000000E+00  0.00000000E+00
  0.00000000E+00  0.00000000E+00  0.00000000E+00
  0.00000000E+00  0.00000000E+00  0.00000000E+00
  0.00000000E+00  0.00000000E+00  0.00000000E+00
  0.00000000E+00  0.00000000E+00  0.00000000E+00
  0.00000000E+00  0.00000000E+00  0.00000000E+00
