Graphene-BC3 Hollow with lattice paramet
   1.00000000000000     
     4.3682321366887082    2.5219999999999998    0.0000000000000000
    -4.3682321366887082    2.5219999999999998    0.0000000000000000
     0.0000000000000000    0.0000000000000000   15.0000000000000000
   B    C 
     2    14
Direct
  0.3382007405494444  0.6690980513559456  0.1135513685638539
  0.6715398955975111  0.3357642533079718  0.1132164167102270
  0.1644829373872919  0.3216550944134975  0.1131978001865964
  0.3240157374281445  0.1620045411834226  0.1132060337181026
  0.1644805270766853  0.8428178886567727  0.1131967996528856
  0.8452930316586417  0.1620014787317750  0.1131965259752040
  0.6856384095446558  0.8428141842204039  0.1131880905749970
  0.8452916109157861  0.6832831990286383  0.1131955299025786
  0.3334815505713424  0.1667442915303826  0.3380120389398217
  0.5001734819138616  0.0001579056612266  0.3379846382278158
  0.3334620010620275  0.6667345596115756  0.3376831821060125
  0.5001734119377601  0.5000229425467783  0.3379846252618514
  0.8334568900892769  0.1667454835399461  0.3380070902721236
  0.0001333923245790  0.0000702870643293  0.3379874853453812
  0.8334569171017859  0.6667184654395933  0.3380070896651904
  0.0000447981745400  0.5000260403744339  0.3379852848973587
 
  0.00000000E+00  0.00000000E+00  0.00000000E+00
  0.00000000E+00  0.00000000E+00  0.00000000E+00
  0.00000000E+00  0.00000000E+00  0.00000000E+00
  0.00000000E+00  0.00000000E+00  0.00000000E+00
  0.00000000E+00  0.00000000E+00  0.00000000E+00
  0.00000000E+00  0.00000000E+00  0.00000000E+00
  0.00000000E+00  0.00000000E+00  0.00000000E+00
  0.00000000E+00  0.00000000E+00  0.00000000E+00
  0.00000000E+00  0.00000000E+00  0.00000000E+00
  0.00000000E+00  0.00000000E+00  0.00000000E+00
  0.00000000E+00  0.00000000E+00  0.00000000E+00
  0.00000000E+00  0.00000000E+00  0.00000000E+00
  0.00000000E+00  0.00000000E+00  0.00000000E+00
  0.00000000E+00  0.00000000E+00  0.00000000E+00
  0.00000000E+00  0.00000000E+00  0.00000000E+00
  0.00000000E+00  0.00000000E+00  0.00000000E+00
