Graphene-BC3 Hollow with lattice paramet
   1.00000000000000     
     4.3682321366887082    2.5219999999999998    0.0000000000000000
    -4.3682321366887082    2.5219999999999998    0.0000000000000000
     0.0000000000000000    0.0000000000000000   15.0000000000000000
   B    C 
     2    14
Direct
  0.3382033336900293  0.6690986609156181  0.1133816215800019
  0.6715386226905474  0.3357667701529113  0.1130661043872163
  0.1644921616974139  0.3216761204365318  0.1130738720550439
  0.3240386687334723  0.1620159180661269  0.1130801238129402
  0.1644921458159050  0.8428096242195510  0.1130742018371098
  0.8452826925809040  0.1620145316692637  0.1130704584661269
  0.6856203975222934  0.8428069161325499  0.1130655053163919
  0.8452832557159573  0.6832619538625128  0.1130708680307949
  0.3334811173097488  0.1667431367592647  0.3381403848010126
  0.5001692877925906  0.0001509535779327  0.3381174106109538
  0.3334617459026261  0.6667334489019370  0.3378319248477867
  0.5001692848023793  0.5000237365039808  0.3381174094127665
  0.8334564745697493  0.1667444710285644  0.3381357855044997
  0.0001317547184831  0.0000685770052506  0.3381205112583746
  0.8334564922913100  0.6667172008886791  0.3381358174259232
  0.0000478974999242  0.5000266465460191  0.3381180006530573
 
  0.00000000E+00  0.00000000E+00  0.00000000E+00
  0.00000000E+00  0.00000000E+00  0.00000000E+00
  0.00000000E+00  0.00000000E+00  0.00000000E+00
  0.00000000E+00  0.00000000E+00  0.00000000E+00
  0.00000000E+00  0.00000000E+00  0.00000000E+00
  0.00000000E+00  0.00000000E+00  0.00000000E+00
  0.00000000E+00  0.00000000E+00  0.00000000E+00
  0.00000000E+00  0.00000000E+00  0.00000000E+00
  0.00000000E+00  0.00000000E+00  0.00000000E+00
  0.00000000E+00  0.00000000E+00  0.00000000E+00
  0.00000000E+00  0.00000000E+00  0.00000000E+00
  0.00000000E+00  0.00000000E+00  0.00000000E+00
  0.00000000E+00  0.00000000E+00  0.00000000E+00
  0.00000000E+00  0.00000000E+00  0.00000000E+00
  0.00000000E+00  0.00000000E+00  0.00000000E+00
  0.00000000E+00  0.00000000E+00  0.00000000E+00
