Graphene-BC3 Hollow with lattice paramet
   1.00000000000000     
     4.3682321366887082    2.5219999999999998    0.0000000000000000
    -4.3682321366887082    2.5219999999999998    0.0000000000000000
     0.0000000000000000    0.0000000000000000   15.0000000000000000
   B    C 
     2    14
Direct
  0.3382033323616070  0.6690986599626703  0.1133816219619510
  0.6715386210305655  0.3357667693647264  0.1130661057206684
  0.1644921601553266  0.3216761199780609  0.1130738727346842
  0.3240386677844321  0.1620159177645608  0.1130801252955402
  0.1644921442141308  0.8428096235809326  0.1130742025247108
  0.8452826909552480  0.1620145310816526  0.1130704600057078
  0.6856203962905594  0.8428069155778829  0.1130655060636382
  0.8452832540170687  0.6832619533442158  0.1130708695783459
  0.3334811196636394  0.1667431377394197  0.3381403834393252
  0.5001692891746266  0.0001509543175564  0.3381174102371889
  0.3334617473829006  0.6667334494641461  0.3378319224370882
  0.5001692862051039  0.5000237369895890  0.3381174090410014
  0.8334564758220203  0.1667444720159904  0.3381357841325714
  0.0001317559993714  0.0000685776203981  0.3381205104894530
  0.8334564935248192  0.6667172007385773  0.3381358160532537
  0.0000478987519131  0.5000266471263156  0.3381180002848728
 
  0.00000000E+00  0.00000000E+00  0.00000000E+00
  0.00000000E+00  0.00000000E+00  0.00000000E+00
  0.00000000E+00  0.00000000E+00  0.00000000E+00
  0.00000000E+00  0.00000000E+00  0.00000000E+00
  0.00000000E+00  0.00000000E+00  0.00000000E+00
  0.00000000E+00  0.00000000E+00  0.00000000E+00
  0.00000000E+00  0.00000000E+00  0.00000000E+00
  0.00000000E+00  0.00000000E+00  0.00000000E+00
  0.00000000E+00  0.00000000E+00  0.00000000E+00
  0.00000000E+00  0.00000000E+00  0.00000000E+00
  0.00000000E+00  0.00000000E+00  0.00000000E+00
  0.00000000E+00  0.00000000E+00  0.00000000E+00
  0.00000000E+00  0.00000000E+00  0.00000000E+00
  0.00000000E+00  0.00000000E+00  0.00000000E+00
  0.00000000E+00  0.00000000E+00  0.00000000E+00
  0.00000000E+00  0.00000000E+00  0.00000000E+00
