Graphene-B4C3 Hollow 1 with lattice para
   1.00000000000000     
     4.1950270559318197    2.4219999999999997    0.0000000000000000
    -4.1950270559318197    2.4219999999999997    0.0000000000000000
     0.0000000000000000    0.0000000000000000   15.0000000000000000
   B    C 
     4    11
Direct
  0.0041608722914273  0.0026844766201754  0.1197017952531869
  0.3563433314044538  0.0028231835447208  0.0976548598715773
  0.0042136274120510  0.3550122652606053  0.0976850361621907
  0.6519773725873109  0.6505651340062288  0.0976624013722576
  0.3264340285616263  0.3249855738042847  0.1003087980395704
  0.6820642960132056  0.0027878297659978  0.1003011111849942
  0.0041954146856691  0.6805009201818173  0.1002734348092953
  0.1110746843300501  0.3889404007436490  0.3372731959078558
  0.2778470505773467  0.2222843523236547  0.3373102481956478
  0.1112044390882363  0.8889539348602651  0.3372786823917130
  0.2778735130508999  0.7222200136220072  0.3372357320256480
  0.6110907266595282  0.3888623206837887  0.3372332670661013
  0.7777567547821542  0.2222445641616307  0.3372779306818789
  0.6110179946448513  0.8888639812241927  0.3373047420471678
  0.7775954494667398  0.7221494936414499  0.3372780983242361
 
  0.00000000E+00  0.00000000E+00  0.00000000E+00
  0.00000000E+00  0.00000000E+00  0.00000000E+00
  0.00000000E+00  0.00000000E+00  0.00000000E+00
  0.00000000E+00  0.00000000E+00  0.00000000E+00
  0.00000000E+00  0.00000000E+00  0.00000000E+00
  0.00000000E+00  0.00000000E+00  0.00000000E+00
  0.00000000E+00  0.00000000E+00  0.00000000E+00
  0.00000000E+00  0.00000000E+00  0.00000000E+00
  0.00000000E+00  0.00000000E+00  0.00000000E+00
  0.00000000E+00  0.00000000E+00  0.00000000E+00
  0.00000000E+00  0.00000000E+00  0.00000000E+00
  0.00000000E+00  0.00000000E+00  0.00000000E+00
  0.00000000E+00  0.00000000E+00  0.00000000E+00
  0.00000000E+00  0.00000000E+00  0.00000000E+00
  0.00000000E+00  0.00000000E+00  0.00000000E+00
