Graphene-B4C3 Hollow 1 with lattice para
   1.00000000000000     
     4.1950270559318197    2.4219999999999997    0.0000000000000000
    -4.1950270559318197    2.4219999999999997    0.0000000000000000
     0.0000000000000000    0.0000000000000000   15.0000000000000000
   B    C 
     4    11
Direct
  0.0044026373249582  0.0026693704347999  0.1070446870088562
  0.3590768720165765  0.0023752152421444  0.1002572778848532
  0.0046095742219712  0.3571809996705768  0.1006384038856918
  0.6500984328887366  0.6477147293736550  0.1005171323911549
  0.3285545380008600  0.3263806329902638  0.1010993578881902
  0.6804822050958574  0.0023473509095755  0.1014052728496770
  0.0045113575127194  0.6786437970941288  0.1011310541146464
  0.1108649071261864  0.3891145493620654  0.3374361429381758
  0.2778922782293540  0.2234034619916557  0.3376283106678637
  0.1110180469911531  0.8887991489308011  0.3375275659453139
  0.2779368514230617  0.7225508134274669  0.3372908164528789
  0.6108282841099093  0.3886271498411138  0.3373068256772154
  0.7771217695890829  0.2224341367928479  0.3374336769148842
  0.6106050418643371  0.8892236411245618  0.3375953001960611
  0.7768467591607865  0.7224134472588115  0.3374675085178583
 
  0.00000000E+00  0.00000000E+00  0.00000000E+00
  0.00000000E+00  0.00000000E+00  0.00000000E+00
  0.00000000E+00  0.00000000E+00  0.00000000E+00
  0.00000000E+00  0.00000000E+00  0.00000000E+00
  0.00000000E+00  0.00000000E+00  0.00000000E+00
  0.00000000E+00  0.00000000E+00  0.00000000E+00
  0.00000000E+00  0.00000000E+00  0.00000000E+00
  0.00000000E+00  0.00000000E+00  0.00000000E+00
  0.00000000E+00  0.00000000E+00  0.00000000E+00
  0.00000000E+00  0.00000000E+00  0.00000000E+00
  0.00000000E+00  0.00000000E+00  0.00000000E+00
  0.00000000E+00  0.00000000E+00  0.00000000E+00
  0.00000000E+00  0.00000000E+00  0.00000000E+00
  0.00000000E+00  0.00000000E+00  0.00000000E+00
  0.00000000E+00  0.00000000E+00  0.00000000E+00
