Graphene-BC3 Bridge with lattice paramet
   1.00000000000000     
     4.3595718826508634    2.5169999999999999    0.0000000000000000
    -4.3595718826508634    2.5169999999999999    0.0000000000000000
     0.0000000000000000    0.0000000000000000   15.0000000000000000
   B    C 
     2    14
Direct
  0.3199746721481166  0.6886090619334206  0.1006218640439969
  0.6532932077182602  0.3552854142839995  0.1004273893966910
  0.1463260514293905  0.3413789178680156  0.1000470400730625
  0.3059223049354204  0.1816282784110786  0.1005929910162264
  0.1462758843643447  0.8623046394824705  0.1008570333662326
  0.8269262728790068  0.1816533037014060  0.0997937101569299
  0.6672089316017277  0.8622593508821160  0.1000709184276411
  0.8269571110117231  0.7026701511546816  0.1006157999475724
  0.2683875101013765  0.2304873138895302  0.3260311607487181
  0.4350252652527344  0.0639035016130927  0.3259944243615628
  0.2683631177766853  0.7305522993236703  0.3257695558821034
  0.4350972943119374  0.5638145406854117  0.3259170318001759
  0.7683879082396852  0.2305245297308064  0.3258929315081308
  0.9350749297215206  0.0638381450076243  0.3260165442882811
  0.7684279121753385  0.7305284495413306  0.3260297661967385
  0.9350102929994356  0.5638874358246694  0.3259885054525934
 
  0.00000000E+00  0.00000000E+00  0.00000000E+00
  0.00000000E+00  0.00000000E+00  0.00000000E+00
  0.00000000E+00  0.00000000E+00  0.00000000E+00
  0.00000000E+00  0.00000000E+00  0.00000000E+00
  0.00000000E+00  0.00000000E+00  0.00000000E+00
  0.00000000E+00  0.00000000E+00  0.00000000E+00
  0.00000000E+00  0.00000000E+00  0.00000000E+00
  0.00000000E+00  0.00000000E+00  0.00000000E+00
  0.00000000E+00  0.00000000E+00  0.00000000E+00
  0.00000000E+00  0.00000000E+00  0.00000000E+00
  0.00000000E+00  0.00000000E+00  0.00000000E+00
  0.00000000E+00  0.00000000E+00  0.00000000E+00
  0.00000000E+00  0.00000000E+00  0.00000000E+00
  0.00000000E+00  0.00000000E+00  0.00000000E+00
  0.00000000E+00  0.00000000E+00  0.00000000E+00
  0.00000000E+00  0.00000000E+00  0.00000000E+00
