Graphene-B4C3 Top with lattice parameter
   1.00000000000000     
     4.2166776910264314    2.4344999999999999    0.0000000000000000
    -4.2166776910264314    2.4344999999999999    0.0000000000000000
     0.0000000000000000    0.0000000000000000   15.0000000000000000
   B    C 
     4    11
Direct
  0.0040436539683949  0.0026904861046035  0.1008180409815309
  0.3592220592754709  0.0029938622314414  0.1003493349238850
  0.0037253022218705  0.3575535761719969  0.1003499173168459
  0.6491699124811774  0.6475055264624402  0.1003470980680497
  0.3275593144979768  0.3258981491408004  0.1003279998431397
  0.6808259280353497  0.0029919146040633  0.1003330117152889
  0.0037366453706811  0.6791638570625173  0.1003312191528649
  0.0001452487106385  0.5000700128108839  0.3350856796527761
  0.1667940026986509  0.3334604047627299  0.3351195931709345
  0.0001266746710752  0.0000788176318317  0.3350481887984395
  0.1668391432032630  0.8334122364327178  0.3351235498795059
  0.5001378405796701  0.5001098554218039  0.3350882363659201
  0.6667930605856932  0.3334137937487187  0.3349868170542417
  0.5000964586583626  0.0000600366181471  0.3350841654567797
  0.6667454217084173  0.8333648041286305  0.3351198142864793
 
  0.00000000E+00  0.00000000E+00  0.00000000E+00
  0.00000000E+00  0.00000000E+00  0.00000000E+00
  0.00000000E+00  0.00000000E+00  0.00000000E+00
  0.00000000E+00  0.00000000E+00  0.00000000E+00
  0.00000000E+00  0.00000000E+00  0.00000000E+00
  0.00000000E+00  0.00000000E+00  0.00000000E+00
  0.00000000E+00  0.00000000E+00  0.00000000E+00
  0.00000000E+00  0.00000000E+00  0.00000000E+00
  0.00000000E+00  0.00000000E+00  0.00000000E+00
  0.00000000E+00  0.00000000E+00  0.00000000E+00
  0.00000000E+00  0.00000000E+00  0.00000000E+00
  0.00000000E+00  0.00000000E+00  0.00000000E+00
  0.00000000E+00  0.00000000E+00  0.00000000E+00
  0.00000000E+00  0.00000000E+00  0.00000000E+00
  0.00000000E+00  0.00000000E+00  0.00000000E+00
