Graphene-B4C3 Top with lattice parameter
   1.00000000000000     
     4.2132135894112936    2.4325000000000001    0.0000000000000000
    -4.2132135894112936    2.4325000000000001    0.0000000000000000
     0.0000000000000000    0.0000000000000000   15.0000000000000000
   B    C 
     4    11
Direct
  0.0041196761501231  0.0027366480026397  0.1035763217765125
  0.3592549677720156  0.0030514528223791  0.1004619071029258
  0.0037960402649358  0.3575507962045270  0.1004625806777611
  0.6492995818498237  0.6475985269214601  0.1004588638982315
  0.3276599496495651  0.3259608241561601  0.1007504608359812
  0.6808873177211568  0.0030476119447126  0.1007498978979855
  0.0037998213319799  0.6791867663718114  0.1007467000716379
  1.0000799488753218  0.5000313136184587  0.3345398595697876
  0.1667286722185004  0.3334213835583080  0.3345800282711507
  1.0000600573475196  1.0000399590115276  0.3345051781589839
  0.1667762693005027  0.8333653576852753  0.3345839924253736
  0.5000714517524569  0.5000726109971753  0.3345427135909836
  0.6667259424349995  0.3333687209809938  0.3344360026485392
  0.5000286959135258  1.0000199330238331  0.3345381797605146
  0.6666722740842678  0.8333154280340637  0.3345799799803140
 
  0.00000000E+00  0.00000000E+00  0.00000000E+00
  0.00000000E+00  0.00000000E+00  0.00000000E+00
  0.00000000E+00  0.00000000E+00  0.00000000E+00
  0.00000000E+00  0.00000000E+00  0.00000000E+00
  0.00000000E+00  0.00000000E+00  0.00000000E+00
  0.00000000E+00  0.00000000E+00  0.00000000E+00
  0.00000000E+00  0.00000000E+00  0.00000000E+00
  0.00000000E+00  0.00000000E+00  0.00000000E+00
  0.00000000E+00  0.00000000E+00  0.00000000E+00
  0.00000000E+00  0.00000000E+00  0.00000000E+00
  0.00000000E+00  0.00000000E+00  0.00000000E+00
  0.00000000E+00  0.00000000E+00  0.00000000E+00
  0.00000000E+00  0.00000000E+00  0.00000000E+00
  0.00000000E+00  0.00000000E+00  0.00000000E+00
  0.00000000E+00  0.00000000E+00  0.00000000E+00
