Graphene-Borophene Bridge with lattice p
   1.00000000000000     
     4.3188686886729952    2.4935000000000000    0.0000000000000000
    -4.3188686886729952    2.4935000000000000    0.0000000000000000
     0.0000000000000000    0.0000000000000000   15.0000000000000000
   B    C 
     8     8
Direct
  0.6769442378505721 -0.0082560878853090  0.1681010405538992
  0.3397636369369649 -0.0081461487568583  0.1682981633150080
  0.0082560878853090  0.3230547621494309  0.1681010405538992
  0.0081461487568583  0.6602353630630380  0.1682981633150080
  0.3396326223786357  0.3229460323927036  0.1676278327763608
  0.6770529676072989  0.6603663776213669  0.1676278327763608
  0.6746138796650014  0.3253851203350014  0.1554943299976740
  0.3413512041548920  0.6586477958451116  0.1798378893021110
  0.2418195563551032  0.2582816992497413  0.4011132104168045
  0.4085381707565749  0.0916180937152625  0.4011520624743034
  0.2418016897595565  0.7581973102404456  0.4012993352999032
  0.4084695296920829  0.5915294703079202  0.4013084788798577
  0.7417458815928332  0.2582531184071697  0.4010689063886524
  0.9084258462400199  0.0915731537599825  0.4009397743924212
  0.7417173007502614  0.7581794436448989  0.4011132104168045
  0.9083809062847401  0.5914608292434278  0.4011520624743034
 
  0.00000000E+00  0.00000000E+00  0.00000000E+00
  0.00000000E+00  0.00000000E+00  0.00000000E+00
  0.00000000E+00  0.00000000E+00  0.00000000E+00
  0.00000000E+00  0.00000000E+00  0.00000000E+00
  0.00000000E+00  0.00000000E+00  0.00000000E+00
  0.00000000E+00  0.00000000E+00  0.00000000E+00
  0.00000000E+00  0.00000000E+00  0.00000000E+00
  0.00000000E+00  0.00000000E+00  0.00000000E+00
  0.00000000E+00  0.00000000E+00  0.00000000E+00
  0.00000000E+00  0.00000000E+00  0.00000000E+00
  0.00000000E+00  0.00000000E+00  0.00000000E+00
  0.00000000E+00  0.00000000E+00  0.00000000E+00
  0.00000000E+00  0.00000000E+00  0.00000000E+00
  0.00000000E+00  0.00000000E+00  0.00000000E+00
  0.00000000E+00  0.00000000E+00  0.00000000E+00
  0.00000000E+00  0.00000000E+00  0.00000000E+00
