Graphene-Borophene Hollow 2 with lattice
   1.00000000000000     
     4.3387872729600367    2.5049999999999999    0.0000000000000000
    -4.3387872729600367    2.5049999999999999    0.0000000000000000
     0.0000000000000000    0.0000000000000000   15.0000000000000000
   B    C 
     8     8
Direct
  0.6693029638090786 -0.0000366439134748  0.1666943171140584
  0.3306593922774489 -0.0000366439134748  0.1666943171140584
  0.0000366439134748  0.3306960361909237  0.1666943171140584
  0.0000366439134748  0.6693396077225535  0.1666943171140584
  0.3306593922774489  0.3306960361909237  0.1666943171140584
  0.6693029638090786  0.6693396077225535  0.1666943171140584
  0.6666659999999993  0.3333330000000032  0.1644164492530491
  0.3333330000000032  0.6666659999999993  0.1693288479249997
  0.3333488357319617  0.1666744178659879  0.4038547047805389
  0.5000179335269098  0.0000358670538198  0.4039127722040832
  0.3333326666666636  0.6666663333333389  0.4038437351672584
  0.5000179335269098  0.4999810664730923  0.4039127722040832
  0.8333245821340146  0.1666744178659879  0.4038547047805389
  0.9999996666666675  0.9999993333333350  0.4037426340164680
  0.8333245821340146  0.6666501642680415  0.4038547047805389
 -0.0000368670538171  0.4999810664730923  0.4039127722040832
 
  0.00000000E+00  0.00000000E+00  0.00000000E+00
  0.00000000E+00  0.00000000E+00  0.00000000E+00
  0.00000000E+00  0.00000000E+00  0.00000000E+00
  0.00000000E+00  0.00000000E+00  0.00000000E+00
  0.00000000E+00  0.00000000E+00  0.00000000E+00
  0.00000000E+00  0.00000000E+00  0.00000000E+00
  0.00000000E+00  0.00000000E+00  0.00000000E+00
  0.00000000E+00  0.00000000E+00  0.00000000E+00
  0.00000000E+00  0.00000000E+00  0.00000000E+00
  0.00000000E+00  0.00000000E+00  0.00000000E+00
  0.00000000E+00  0.00000000E+00  0.00000000E+00
  0.00000000E+00  0.00000000E+00  0.00000000E+00
  0.00000000E+00  0.00000000E+00  0.00000000E+00
  0.00000000E+00  0.00000000E+00  0.00000000E+00
  0.00000000E+00  0.00000000E+00  0.00000000E+00
  0.00000000E+00  0.00000000E+00  0.00000000E+00
