BC3 with lattice parameter 5.169        
   1.00000000000000     
     4.4764850000000003    2.5844999999999998    0.0000000000000000
    -4.4764850000000003    2.5844999999999998    0.0000000000000000
     0.0000000000000000    0.0000000000000000   15.0000000000000000
   B    C 
     2     6
Direct
  0.3383328356129091  0.6691643122763260  0.2500000000000000
  0.6716638315365576  0.3358348369229160  0.2500000000000000
  0.1611602367798415  0.3148417718971019  0.2500000000000000
  0.3173402569726861  0.1586830729712466  0.2500000000000000
  0.1611865617071272  0.8463409369852688  0.2500000000000000
  0.8488130332086590  0.1586595191850376  0.2500000000000000
  0.6926590012501377  0.8463152167286755  0.2500000000000000
  0.8488402429320910  0.6901563330334266  0.2500000000000000
 
  0.00000000E+00  0.00000000E+00  0.00000000E+00
  0.00000000E+00  0.00000000E+00  0.00000000E+00
  0.00000000E+00  0.00000000E+00  0.00000000E+00
  0.00000000E+00  0.00000000E+00  0.00000000E+00
  0.00000000E+00  0.00000000E+00  0.00000000E+00
  0.00000000E+00  0.00000000E+00  0.00000000E+00
  0.00000000E+00  0.00000000E+00  0.00000000E+00
  0.00000000E+00  0.00000000E+00  0.00000000E+00
