Graphene-B4C3 Hollow 2 with lattice para
   1.00000000000000     
     4.1967591067393890    2.4229999999999996    0.0000000000000000
    -4.1967591067393890    2.4229999999999996    0.0000000000000000
     0.0000000000000000    0.0000000000000000   15.0000000000000000
   B    C 
     4    11
Direct
  0.0044121401257574  0.0029351163285284  0.0996680923187763
  0.3595683410974711  0.0029353720587681  0.1010502466795146
  0.0044176769546099  0.3580904412717599  0.1010512225495332
  0.6492619048538867  0.6477788407572241  0.1010434250204388
  0.3280871639769338  0.3266032107224677  0.1008199946601729
  0.6807486348323621  0.0029404172005514  0.1008285786802822
  0.0044224024839985  0.6792670336394742  0.1008306609311225
  0.1664432190648753  0.3331895176497630  0.3382684912199406
  0.3331255795890387  0.1665047403663852  0.3382702393361833
  0.1664831796355751  0.8332175270805138  0.3382745013807827
  0.3331281143046910  0.6665266759837977  0.3381617749053611
  0.6664617130467726  0.3331920585530917  0.3381617007616413
  0.8331530563693069  0.1665458291621054  0.3382739874952778
  0.6664654394420130  0.8331779169667389  0.3382721631839025
  0.8331154342227148  0.6665293022588407  0.3382709208770971
 
  0.00000000E+00  0.00000000E+00  0.00000000E+00
  0.00000000E+00  0.00000000E+00  0.00000000E+00
  0.00000000E+00  0.00000000E+00  0.00000000E+00
  0.00000000E+00  0.00000000E+00  0.00000000E+00
  0.00000000E+00  0.00000000E+00  0.00000000E+00
  0.00000000E+00  0.00000000E+00  0.00000000E+00
  0.00000000E+00  0.00000000E+00  0.00000000E+00
  0.00000000E+00  0.00000000E+00  0.00000000E+00
  0.00000000E+00  0.00000000E+00  0.00000000E+00
  0.00000000E+00  0.00000000E+00  0.00000000E+00
  0.00000000E+00  0.00000000E+00  0.00000000E+00
  0.00000000E+00  0.00000000E+00  0.00000000E+00
  0.00000000E+00  0.00000000E+00  0.00000000E+00
  0.00000000E+00  0.00000000E+00  0.00000000E+00
  0.00000000E+00  0.00000000E+00  0.00000000E+00
