BC3 with lattice parameter 5.169        
   1.00000000000000     
     4.4764850000000003    2.5844999999999998    0.0000000000000000
    -4.4764850000000003    2.5844999999999998    0.0000000000000000
     0.0000000000000000    0.0000000000000000   15.0000000000000000
   B    C 
     2     6
Direct
  0.3383345113913964  0.6691650858359384  0.2500000000000000
  0.6716660946076900  0.3358318421117748  0.2500000000000000
  0.1637459426686920  0.3199992623512732  0.2500000000000000
  0.3224997322327161  0.1612493692879485  0.2500000000000000
  0.1637529208576474  0.8437483346561384  0.2500000000000000
  0.8462455077975729  0.1612514282709968  0.2500000000000000
  0.6874997796993024  0.8437510725442732  0.2500000000000000
  0.8462515107449849  0.6849996049416555  0.2500000000000000
 
  0.00000000E+00  0.00000000E+00  0.00000000E+00
  0.00000000E+00  0.00000000E+00  0.00000000E+00
  0.00000000E+00  0.00000000E+00  0.00000000E+00
  0.00000000E+00  0.00000000E+00  0.00000000E+00
  0.00000000E+00  0.00000000E+00  0.00000000E+00
  0.00000000E+00  0.00000000E+00  0.00000000E+00
  0.00000000E+00  0.00000000E+00  0.00000000E+00
  0.00000000E+00  0.00000000E+00  0.00000000E+00
