k-points 41
0
Gamma
41    41    1
0    0    0