Graphene-BC3 Bridge with lattice paramet
   1.00000000000000     
     4.3656340604773556    2.5205000000000002    0.0000000000000000
    -4.3656340604773556    2.5205000000000002    0.0000000000000000
     0.0000000000000000    0.0000000000000000   15.0000000000000000
   B    C 
     2    14
Direct
  0.3116712690877109  0.6975221599496539  0.1010709212682563
  0.6450174866836276  0.3641771880179240  0.1008001062960437
  0.1379775832800895  0.3501616052775799  0.1006688783645449
  0.2975308796685497  0.1904923622124069  0.1008380980566173
  0.1379365023217432  0.8712455342140368  0.1009016463839455
  0.8187132995217276  0.1904786543301154  0.1005883119765856
  0.6590205092776041  0.8712133082085904  0.1006679385974564
  0.8186947092692303  0.7116658989144039  0.1008373607337781
  0.2766908572361689  0.2216079583012687  0.3256164995824129
  0.4433425858214289  0.0550319171757762  0.3255642780895762
  0.2766648441299724  0.7216441428391813  0.3252948661094550
  0.4433851905576132  0.5549183412573282  0.3255287265243008
  0.7766750157651986  0.2216346201503967  0.3255225461606546
  0.9433594929458683  0.0549486977891658  0.3255947276279308
  0.7767019848136084  0.7216194127842707  0.3256124467412455
  0.9432764562865638  0.5549635319112258  0.3255593141538533
 
  0.00000000E+00  0.00000000E+00  0.00000000E+00
  0.00000000E+00  0.00000000E+00  0.00000000E+00
  0.00000000E+00  0.00000000E+00  0.00000000E+00
  0.00000000E+00  0.00000000E+00  0.00000000E+00
  0.00000000E+00  0.00000000E+00  0.00000000E+00
  0.00000000E+00  0.00000000E+00  0.00000000E+00
  0.00000000E+00  0.00000000E+00  0.00000000E+00
  0.00000000E+00  0.00000000E+00  0.00000000E+00
  0.00000000E+00  0.00000000E+00  0.00000000E+00
  0.00000000E+00  0.00000000E+00  0.00000000E+00
  0.00000000E+00  0.00000000E+00  0.00000000E+00
  0.00000000E+00  0.00000000E+00  0.00000000E+00
  0.00000000E+00  0.00000000E+00  0.00000000E+00
  0.00000000E+00  0.00000000E+00  0.00000000E+00
  0.00000000E+00  0.00000000E+00  0.00000000E+00
  0.00000000E+00  0.00000000E+00  0.00000000E+00
