Graphene-BC3 Bridge with lattice paramet
   1.00000000000000     
     4.3656340604773556    2.5205000000000002    0.0000000000000000
    -4.3656340604773556    2.5205000000000002    0.0000000000000000
     0.0000000000000000    0.0000000000000000   15.0000000000000000
   B    C 
     2    14
Direct
  0.3382905353009002  0.6692070515153464  0.1002336544772013
  0.6716467514612589  0.3358563427346108  0.1001408895711950
  0.1646016822789688  0.3218578471960752  0.0999102502404193
  0.3241898836503092  0.1622084009182064  0.0999359472692763
  0.1645579114920516  0.8429484627003094  0.0999602813980972
  0.8453104165928645  0.1621906729019016  0.0998848492634184
  0.6856442872666946  0.8429051863480249  0.0999115466260872
  0.8452918163272969  0.6833145623351470  0.0999373255737626
  0.2500116745800353  0.2498252111407747  0.3264487813212676
  0.4166145272777630  0.0832585539063332  0.3263838222178397
  0.2499969222561384  0.7500015957014511  0.3262451475034270
  0.4167524686028656  0.5832423958211834  0.3262137861311918
  0.7500608259939756  0.2499318241479445  0.3262152073509944
  0.9167828116792157  0.0832108621957106  0.3264198116019241
  0.7501698531652632  0.7499853079950715  0.3264488570610930
  0.9167362987411036  0.5833810557752329  0.3263765090594621
 
  0.00000000E+00  0.00000000E+00  0.00000000E+00
  0.00000000E+00  0.00000000E+00  0.00000000E+00
  0.00000000E+00  0.00000000E+00  0.00000000E+00
  0.00000000E+00  0.00000000E+00  0.00000000E+00
  0.00000000E+00  0.00000000E+00  0.00000000E+00
  0.00000000E+00  0.00000000E+00  0.00000000E+00
  0.00000000E+00  0.00000000E+00  0.00000000E+00
  0.00000000E+00  0.00000000E+00  0.00000000E+00
  0.00000000E+00  0.00000000E+00  0.00000000E+00
  0.00000000E+00  0.00000000E+00  0.00000000E+00
  0.00000000E+00  0.00000000E+00  0.00000000E+00
  0.00000000E+00  0.00000000E+00  0.00000000E+00
  0.00000000E+00  0.00000000E+00  0.00000000E+00
  0.00000000E+00  0.00000000E+00  0.00000000E+00
  0.00000000E+00  0.00000000E+00  0.00000000E+00
  0.00000000E+00  0.00000000E+00  0.00000000E+00
