Graphene-B4C3 Hollow 1 with lattice para
   1.00000000000000     
     4.2080174369885874    2.4295000000000000    0.0000000000000000
    -4.2080174369885874    2.4295000000000000    0.0000000000000000
     0.0000000000000000    0.0000000000000000   15.0000000000000000
   B    C 
     4    11
Direct
  0.0295822677598546 -0.0196106483933459  0.1010517376318443
  0.3845450327696354 -0.0199970304131410  0.0998609051400677
  0.0296428124441227  0.3354644861010601  0.0996942529084176
  0.6746156433372444  0.6246003036016038  0.0997311576998506
  0.3531574412779058  0.3032431391970687  0.0998938628926834
  0.7063160206269505 -0.0199205482862732  0.0996412831833639
  0.0296557118802627  0.6564653015499332  0.0999181110248430
  0.0887721892685412  0.4087519214610844  0.3390180885921768
  0.2555183568207633  0.2421278077563292  0.3389926982621965
  0.0888830348766320  0.9088616633722708  0.3388689829060099
  0.2556450528161524  0.7421560755179352  0.3389980177331950
  0.5888321906825370  0.4087259892142634  0.3389733227230513
  0.7555564223197179  0.2422314104490973  0.3390726991059365
  0.5887301186474910  0.9086528994666007  0.3391282528789200
  0.7553972600277394  0.7421256738499815  0.3389359606507649
 
  0.00000000E+00  0.00000000E+00  0.00000000E+00
  0.00000000E+00  0.00000000E+00  0.00000000E+00
  0.00000000E+00  0.00000000E+00  0.00000000E+00
  0.00000000E+00  0.00000000E+00  0.00000000E+00
  0.00000000E+00  0.00000000E+00  0.00000000E+00
  0.00000000E+00  0.00000000E+00  0.00000000E+00
  0.00000000E+00  0.00000000E+00  0.00000000E+00
  0.00000000E+00  0.00000000E+00  0.00000000E+00
  0.00000000E+00  0.00000000E+00  0.00000000E+00
  0.00000000E+00  0.00000000E+00  0.00000000E+00
  0.00000000E+00  0.00000000E+00  0.00000000E+00
  0.00000000E+00  0.00000000E+00  0.00000000E+00
  0.00000000E+00  0.00000000E+00  0.00000000E+00
  0.00000000E+00  0.00000000E+00  0.00000000E+00
  0.00000000E+00  0.00000000E+00  0.00000000E+00
