Graphene-B4C3 Hollow 2 with lattice para
   1.00000000000000     
     4.1984911575469575    2.4239999999999995    0.0000000000000000
    -4.1984911575469575    2.4239999999999995    0.0000000000000000
     0.0000000000000000    0.0000000000000000   15.0000000000000000
   B    C 
     4    11
Direct
  0.0042981553574285  0.0028535141854960  0.1017676337752741
  0.3594558990108322  0.0028594743271701  0.1009039133457493
  0.0043069669425457  0.3580115424851154  0.1009060117133063
  0.6491484503438985  0.6477008952486881  0.1009100291442442
  0.3279602036924411  0.3265125133810949  0.1009463172947046
  0.6806515419165671  0.0028601789251520  0.1009464449580504
  0.0043073805559025  0.6792046443428595  0.1009466839093525
  0.1665456743441646  0.3332677864764049  0.3380176037771474
  0.3332307248701564  0.1665747227931570  0.3380193469344766
  0.1665858299033305  0.8332819385481859  0.3380215669714223
  0.3332240796897467  0.6665931454907769  0.3379029483400888
  0.6665632849023608  0.3332620979505848  0.3379029636283402
  0.8332440467438202  0.1666128288514841  0.3380208877395086
  0.6665653623830294  0.8332455300152561  0.3380173503617505
  0.8332063993437830  0.6665931869785860  0.3380162981066121
 
  0.00000000E+00  0.00000000E+00  0.00000000E+00
  0.00000000E+00  0.00000000E+00  0.00000000E+00
  0.00000000E+00  0.00000000E+00  0.00000000E+00
  0.00000000E+00  0.00000000E+00  0.00000000E+00
  0.00000000E+00  0.00000000E+00  0.00000000E+00
  0.00000000E+00  0.00000000E+00  0.00000000E+00
  0.00000000E+00  0.00000000E+00  0.00000000E+00
  0.00000000E+00  0.00000000E+00  0.00000000E+00
  0.00000000E+00  0.00000000E+00  0.00000000E+00
  0.00000000E+00  0.00000000E+00  0.00000000E+00
  0.00000000E+00  0.00000000E+00  0.00000000E+00
  0.00000000E+00  0.00000000E+00  0.00000000E+00
  0.00000000E+00  0.00000000E+00  0.00000000E+00
  0.00000000E+00  0.00000000E+00  0.00000000E+00
  0.00000000E+00  0.00000000E+00  0.00000000E+00
