Graphene-BC3 Bridge with lattice paramet
   1.00000000000000     
     4.3656340604773556    2.5205000000000002    0.0000000000000000
    -4.3656340604773556    2.5205000000000002    0.0000000000000000
     0.0000000000000000    0.0000000000000000   15.0000000000000000
   B    C 
     2    14
Direct
  0.3129421818587809  0.6961730289222547  0.1010533331842215
  0.6463307756020741  0.3628153740565695  0.1008626643728209
  0.1392076172115197  0.3488439982109695  0.1003302423079389
  0.2987965285424268  0.1890659479865026  0.1010867377484372
  0.1392273440341138  0.8698661720213301  0.1013412600943957
  0.8199915305384329  0.1892355037065083  0.0999463635308139
  0.6602973435498337  0.8699202649470729  0.1003614751931752
  0.8199501502363280  0.7103288846823208  0.1011218500631803
  0.2754290547715919  0.2229356395769987  0.3257196743016957
  0.4420326870527521  0.0563538451457016  0.3255396934478642
  0.2754114897852137  0.7229639619022216  0.3252357819493200
  0.4421162838926544  0.5562535459687533  0.3255776895645870
  0.7754054034780872  0.2229701408727561  0.3255808793394585
  0.9420554911483595  0.0563163074424934  0.3256673830536860
  0.7754489079516559  0.7229514936995300  0.3257126400286384
  0.9420158770128805  0.5563312241913415  0.3255289984864232
 
  0.00000000E+00  0.00000000E+00  0.00000000E+00
  0.00000000E+00  0.00000000E+00  0.00000000E+00
  0.00000000E+00  0.00000000E+00  0.00000000E+00
  0.00000000E+00  0.00000000E+00  0.00000000E+00
  0.00000000E+00  0.00000000E+00  0.00000000E+00
  0.00000000E+00  0.00000000E+00  0.00000000E+00
  0.00000000E+00  0.00000000E+00  0.00000000E+00
  0.00000000E+00  0.00000000E+00  0.00000000E+00
  0.00000000E+00  0.00000000E+00  0.00000000E+00
  0.00000000E+00  0.00000000E+00  0.00000000E+00
  0.00000000E+00  0.00000000E+00  0.00000000E+00
  0.00000000E+00  0.00000000E+00  0.00000000E+00
  0.00000000E+00  0.00000000E+00  0.00000000E+00
  0.00000000E+00  0.00000000E+00  0.00000000E+00
  0.00000000E+00  0.00000000E+00  0.00000000E+00
  0.00000000E+00  0.00000000E+00  0.00000000E+00
