Graphene-Borophene Hollow 1 with lattice
   1.00000000000000     
     4.3561077810357238    2.5149999999999988    0.0000000000000000
    -4.3561077810357238    2.5149999999999988    0.0000000000000000
     0.0000000000000000    0.0000000000000000   15.0000000000000000
   B    C 
     8     8
Direct
  0.6737061144710416 -0.0047749577112673  0.1665248554183928
  0.3357068040842597 -0.0046821393888738  0.1666060316917345
  0.0047749577112673  0.3262928855289611  0.1665248554183928
  0.0046821393888738  0.6642921959157428  0.1666060316917345
  0.3355988602738074  0.3262263982956274  0.1666930431765593
  0.6737726017043750  0.6644001397261952  0.1666930431765593
  0.6711871031519291  0.3288118968480742  0.1673830166376315
  0.3378774847405083  0.6621215152594945  0.1653963670750421
  0.2731346093675689  0.2268962532742276  0.4030275131275564
  0.4397978993221140  0.0602514665056312  0.4030758304770016
  0.2731135917264931  0.7268854082735092  0.4030513635399816
  0.4397943599968724  0.5602046400031301  0.4031016281891112
  0.7731058625676254  0.2268931374323772  0.4030619072895113
  0.9397792201620504  0.0602197798379523  0.4029511694862420
  0.7731027467257751  0.7268643906324338  0.4030275131275564
  0.9397475334943710  0.5602011006778885  0.4030758304770016
 
  0.00000000E+00  0.00000000E+00  0.00000000E+00
  0.00000000E+00  0.00000000E+00  0.00000000E+00
  0.00000000E+00  0.00000000E+00  0.00000000E+00
  0.00000000E+00  0.00000000E+00  0.00000000E+00
  0.00000000E+00  0.00000000E+00  0.00000000E+00
  0.00000000E+00  0.00000000E+00  0.00000000E+00
  0.00000000E+00  0.00000000E+00  0.00000000E+00
  0.00000000E+00  0.00000000E+00  0.00000000E+00
  0.00000000E+00  0.00000000E+00  0.00000000E+00
  0.00000000E+00  0.00000000E+00  0.00000000E+00
  0.00000000E+00  0.00000000E+00  0.00000000E+00
  0.00000000E+00  0.00000000E+00  0.00000000E+00
  0.00000000E+00  0.00000000E+00  0.00000000E+00
  0.00000000E+00  0.00000000E+00  0.00000000E+00
  0.00000000E+00  0.00000000E+00  0.00000000E+00
  0.00000000E+00  0.00000000E+00  0.00000000E+00
