Graphene-Borophene Bridge with lattice p
   1.00000000000000     
     4.3058783076162293    2.4860000000000002    0.0000000000000000
    -4.3058783076162293    2.4860000000000002    0.0000000000000000
     0.0000000000000000    0.0000000000000000   15.0000000000000000
   B    C 
     8     8
Direct
  0.6749447324035244 -0.0063471423518812  0.1684212849317707
  0.3376657752483694 -0.0062196696076683  0.1685992722092572
  0.0063471423518812  0.3250542675964782  0.1684212849317707
  0.0062196696076683  0.6623332247516331  0.1685992722092572
  0.3373095492916747  0.3250444843872490  0.1668114410834467
  0.6749545156127537  0.6626894507083277  0.1668114410834468
  0.6724691336360641  0.3275298663639389  0.1559593957881928
  0.3392414619182589  0.6607575380817439  0.1809112713535562
  0.2438685882872488  0.2561166508933765  0.4009184256925251
  0.4104943933214402  0.0894835363900789  0.4010397104283260
  0.2438552099238378  0.7561437900761651  0.4011192937266461
  0.4105700371580898  0.5894289628419127  0.4010633589515987
  0.7438434488614462  0.2561555511385569  0.4010485459483163
  0.9104781963278977  0.0895208036721052  0.4008511988744111
  0.7438823491066262  0.7561304117127539  0.4009184256925251
  0.9105154636099234  0.5895046066785626  0.4010397104283260
 
  0.00000000E+00  0.00000000E+00  0.00000000E+00
  0.00000000E+00  0.00000000E+00  0.00000000E+00
  0.00000000E+00  0.00000000E+00  0.00000000E+00
  0.00000000E+00  0.00000000E+00  0.00000000E+00
  0.00000000E+00  0.00000000E+00  0.00000000E+00
  0.00000000E+00  0.00000000E+00  0.00000000E+00
  0.00000000E+00  0.00000000E+00  0.00000000E+00
  0.00000000E+00  0.00000000E+00  0.00000000E+00
  0.00000000E+00  0.00000000E+00  0.00000000E+00
  0.00000000E+00  0.00000000E+00  0.00000000E+00
  0.00000000E+00  0.00000000E+00  0.00000000E+00
  0.00000000E+00  0.00000000E+00  0.00000000E+00
  0.00000000E+00  0.00000000E+00  0.00000000E+00
  0.00000000E+00  0.00000000E+00  0.00000000E+00
  0.00000000E+00  0.00000000E+00  0.00000000E+00
  0.00000000E+00  0.00000000E+00  0.00000000E+00
