Graphene-BC3 Bridge with lattice paramet
   1.00000000000000     
     4.3630359842660011    2.5189999999999997    0.0000000000000000
    -4.3630359842660011    2.5189999999999997    0.0000000000000000
     0.0000000000000000    0.0000000000000000   15.0000000000000000
   B    C 
     2    14
Direct
  0.3324021939015170  0.6754605057566986  0.0996038500773248
  0.6656646192546827  0.3421976365726589  0.0998142558303637
  0.1587204824913031  0.3280939366311101  0.0999087598387206
  0.3182212609451844  0.1684002289406630  0.0994345213235455
  0.1587642256270277  0.8491496387548886  0.0991226581360852
  0.8393072881028945  0.1685183107743334  0.1001955794260564
  0.6798108593855778  0.8491513535058620  0.0998694766565412
  0.8394707982171574  0.6896181373433184  0.0994003900697415
  0.2559064669543402  0.2435710507090999  0.3267758069047328
  0.4225175276864730  0.0769961581088028  0.3267180187128681
  0.2559141960286750  0.7437165616437947  0.3264880334430555
  0.4226672949633604  0.5769667205612392  0.3265865165987611
  0.7559354850108826  0.2436860414553094  0.3265683032330498
  0.9226623437199211  0.0769667047302076  0.3266949650543892
  0.7560621782211326  0.7437252379931795  0.3267769197747298
  0.9226314461565759  0.5771071098521579  0.3267086115866918
 
  0.00000000E+00  0.00000000E+00  0.00000000E+00
  0.00000000E+00  0.00000000E+00  0.00000000E+00
  0.00000000E+00  0.00000000E+00  0.00000000E+00
  0.00000000E+00  0.00000000E+00  0.00000000E+00
  0.00000000E+00  0.00000000E+00  0.00000000E+00
  0.00000000E+00  0.00000000E+00  0.00000000E+00
  0.00000000E+00  0.00000000E+00  0.00000000E+00
  0.00000000E+00  0.00000000E+00  0.00000000E+00
  0.00000000E+00  0.00000000E+00  0.00000000E+00
  0.00000000E+00  0.00000000E+00  0.00000000E+00
  0.00000000E+00  0.00000000E+00  0.00000000E+00
  0.00000000E+00  0.00000000E+00  0.00000000E+00
  0.00000000E+00  0.00000000E+00  0.00000000E+00
  0.00000000E+00  0.00000000E+00  0.00000000E+00
  0.00000000E+00  0.00000000E+00  0.00000000E+00
  0.00000000E+00  0.00000000E+00  0.00000000E+00
