Graphene-BC3 Bridge with lattice paramet
   1.00000000000000     
     4.3630359842660011    2.5189999999999997    0.0000000000000000
    -4.3630359842660011    2.5189999999999997    0.0000000000000000
     0.0000000000000000    0.0000000000000000   15.0000000000000000
   B    C 
     2    14
Direct
  0.3360858137829982  0.6715527660453802  0.0998947188633528
  0.6694080590125705  0.3382317599117325  0.0996334314176825
  0.1623673278739452  0.3242673886584070  0.0989961397557374
  0.3219628977034278  0.1645632476753528  0.1002033140878862
  0.1623179081270726  0.8452894689837643  0.1008938037516367
  0.8430525708604499  0.1646198951444123  0.0983321233218507
  0.6833743665715201  0.8453048706534714  0.0990503444303733
  0.8430478014200760  0.6856781429386102  0.1002544377582322
  0.2522625621664362  0.2474471272076639  0.3268131338581509
  0.4188518267475181  0.0808882939873894  0.3266899009069080
  0.2522449708659866  0.7476165710938467  0.3265198558524404
  0.4189883501473489  0.5808683053019471  0.3265474522326197
  0.7523004323157116  0.2475552608295382  0.3265650585222274
  0.9190144346737770  0.0808402226750840  0.3267815168159071
  0.7524119517738614  0.7475979497191042  0.3268114404477942
  0.9189673926240052  0.5810040625076193  0.3266799946438574
 
  0.00000000E+00  0.00000000E+00  0.00000000E+00
  0.00000000E+00  0.00000000E+00  0.00000000E+00
  0.00000000E+00  0.00000000E+00  0.00000000E+00
  0.00000000E+00  0.00000000E+00  0.00000000E+00
  0.00000000E+00  0.00000000E+00  0.00000000E+00
  0.00000000E+00  0.00000000E+00  0.00000000E+00
  0.00000000E+00  0.00000000E+00  0.00000000E+00
  0.00000000E+00  0.00000000E+00  0.00000000E+00
  0.00000000E+00  0.00000000E+00  0.00000000E+00
  0.00000000E+00  0.00000000E+00  0.00000000E+00
  0.00000000E+00  0.00000000E+00  0.00000000E+00
  0.00000000E+00  0.00000000E+00  0.00000000E+00
  0.00000000E+00  0.00000000E+00  0.00000000E+00
  0.00000000E+00  0.00000000E+00  0.00000000E+00
  0.00000000E+00  0.00000000E+00  0.00000000E+00
  0.00000000E+00  0.00000000E+00  0.00000000E+00
