Graphene-Borophene Hollow 2 with lattice
   1.00000000000000     
     4.3162706124616408    2.4919999999999995    0.0000000000000000
    -4.3162706124616408    2.4919999999999995    0.0000000000000000
     0.0000000000000000    0.0000000000000000   15.0000000000000000
   B    C 
     8     8
Direct
  0.6695003095781119 -0.0000526282977338  0.1669392820333878
  0.3304460621241572 -0.0000526282977338  0.1669392820333878
  0.0000526282977338  0.3304986904218908  0.1669392820333878
  0.0000526282977338  0.6695529378758461  0.1669392820333878
  0.3304460621241572  0.3304986904218908  0.1669392820333878
  0.6695003095781119  0.6695529378758461  0.1669392820333878
  0.6666659999999993  0.3333330000000032  0.1618197225831214
  0.3333330000000032  0.6666659999999993  0.1726189071480114
  0.3333502135654517  0.1666751067827330  0.4035754574753699
  0.5000202048298067  0.0000404096596135  0.4036493169045166
  0.3333326666666636  0.6666663333333389  0.4035912973434760
  0.5000202048298067  0.4999787951701962  0.4036493169045166
  0.8333238932172697  0.1666751067827330  0.4035754574753699
  0.9999996666666675  0.9999993333333350  0.4034600575853962
  0.8333238932172697  0.6666487864345513  0.4035754574753699
 -0.0000414096596107  0.4999787951701962  0.4036493169045166
 
  0.00000000E+00  0.00000000E+00  0.00000000E+00
  0.00000000E+00  0.00000000E+00  0.00000000E+00
  0.00000000E+00  0.00000000E+00  0.00000000E+00
  0.00000000E+00  0.00000000E+00  0.00000000E+00
  0.00000000E+00  0.00000000E+00  0.00000000E+00
  0.00000000E+00  0.00000000E+00  0.00000000E+00
  0.00000000E+00  0.00000000E+00  0.00000000E+00
  0.00000000E+00  0.00000000E+00  0.00000000E+00
  0.00000000E+00  0.00000000E+00  0.00000000E+00
  0.00000000E+00  0.00000000E+00  0.00000000E+00
  0.00000000E+00  0.00000000E+00  0.00000000E+00
  0.00000000E+00  0.00000000E+00  0.00000000E+00
  0.00000000E+00  0.00000000E+00  0.00000000E+00
  0.00000000E+00  0.00000000E+00  0.00000000E+00
  0.00000000E+00  0.00000000E+00  0.00000000E+00
  0.00000000E+00  0.00000000E+00  0.00000000E+00
