Graphene-Borophene Hollow 2 with lattice
   1.00000000000000     
     4.3162706124616408    2.4919999999999995    0.0000000000000000
    -4.3162706124616408    2.4919999999999995    0.0000000000000000
     0.0000000000000000    0.0000000000000000   15.0000000000000000
   B    C 
     8     8
Direct
  0.6696364120048273 -0.0000879879122333  0.1618598250397001
  0.3302746000829421 -0.0000879879122333  0.1618598250397000
  0.0000879879122333  0.3303625879951753  0.1618598250397001
  0.0000879879122333  0.6697243999170605  0.1618598250397001
  0.3302746000829421  0.3303625879951753  0.1618598250397001
  0.6696364120048273  0.6697243999170605  0.1618598250397001
  0.6666659999999993  0.3333330000000032  0.1617063484186361
  0.3333330000000032  0.6666659999999993  0.1740783655498808
  0.3402704217850383  0.1701352108925263  0.4077229365265132
  0.4986091033606966 -0.0027817932786065  0.4067632179445335
  0.3333326666666636  0.6666663333333389  0.4057187979126237
  0.4986091033606966  0.5013898966393060  0.4067632179445335
  0.8298637891074763  0.1701352108925263  0.4077229365265132
  0.9999996666666675  0.9999993333333350  0.4086790744675106
  0.8298637891074763  0.6597285782149642  0.4077229365265132
  0.0027807932786093  0.5013898966393060  0.4067632179445335
 
  0.00000000E+00  0.00000000E+00  0.00000000E+00
  0.00000000E+00  0.00000000E+00  0.00000000E+00
  0.00000000E+00  0.00000000E+00  0.00000000E+00
  0.00000000E+00  0.00000000E+00  0.00000000E+00
  0.00000000E+00  0.00000000E+00  0.00000000E+00
  0.00000000E+00  0.00000000E+00  0.00000000E+00
  0.00000000E+00  0.00000000E+00  0.00000000E+00
  0.00000000E+00  0.00000000E+00  0.00000000E+00
  0.00000000E+00  0.00000000E+00  0.00000000E+00
  0.00000000E+00  0.00000000E+00  0.00000000E+00
  0.00000000E+00  0.00000000E+00  0.00000000E+00
  0.00000000E+00  0.00000000E+00  0.00000000E+00
  0.00000000E+00  0.00000000E+00  0.00000000E+00
  0.00000000E+00  0.00000000E+00  0.00000000E+00
  0.00000000E+00  0.00000000E+00  0.00000000E+00
  0.00000000E+00  0.00000000E+00  0.00000000E+00
