Graphene-Borophene Hollow 2 with lattice
   1.00000000000000     
     4.3162706124616408    2.4919999999999995    0.0000000000000000
    -4.3162706124616408    2.4919999999999995    0.0000000000000000
     0.0000000000000000    0.0000000000000000   15.0000000000000000
   B    C 
     8     8
Direct
  0.6695085101614712 -0.0000545725006566  0.1669513862884219
  0.3304359173378752 -0.0000545725006566  0.1669513862884218
  0.0000545725006566  0.3304904898385316  0.1669513862884219
  0.0000545725006566  0.6695630826621282  0.1669513862884219
  0.3304359173378752  0.3304904898385316  0.1669513862884219
  0.6695085101614712  0.6695630826621282  0.1669513862884219
  0.6666659999999993  0.3333330000000032  0.1616481068221867
  0.3333330000000032  0.6666659999999993  0.1725284719350510
  0.3333325203890484  0.1666662601945313  0.4035933289015222
  0.5000175987482401  0.0000351974964808  0.4036722941760735
  0.3333326666666636  0.6666663333333389  0.4036318892452561
  0.5000175987482401  0.4999814012517625  0.4036722941760735
  0.8333327398054713  0.1666662601945313  0.4035933289015222
  0.9999996666666675  0.9999993333333350  0.4034863450341785
  0.8333327398054713  0.6666664796109542  0.4035933289015222
 -0.0000361974964780  0.4999814012517625  0.4036722941760735
 
  0.00000000E+00  0.00000000E+00  0.00000000E+00
  0.00000000E+00  0.00000000E+00  0.00000000E+00
  0.00000000E+00  0.00000000E+00  0.00000000E+00
  0.00000000E+00  0.00000000E+00  0.00000000E+00
  0.00000000E+00  0.00000000E+00  0.00000000E+00
  0.00000000E+00  0.00000000E+00  0.00000000E+00
  0.00000000E+00  0.00000000E+00  0.00000000E+00
  0.00000000E+00  0.00000000E+00  0.00000000E+00
  0.00000000E+00  0.00000000E+00  0.00000000E+00
  0.00000000E+00  0.00000000E+00  0.00000000E+00
  0.00000000E+00  0.00000000E+00  0.00000000E+00
  0.00000000E+00  0.00000000E+00  0.00000000E+00
  0.00000000E+00  0.00000000E+00  0.00000000E+00
  0.00000000E+00  0.00000000E+00  0.00000000E+00
  0.00000000E+00  0.00000000E+00  0.00000000E+00
  0.00000000E+00  0.00000000E+00  0.00000000E+00
