Graphene-B4C3 Top with lattice parameter
   1.00000000000000     
     4.1961113225161597    2.4224829322295447    0.0045382849701320
    -4.1962387848329508    2.4227027671072152    0.0012913976720074
     0.0064265859547019    0.0193215533466933   12.1901544630490868
   B    C 
     4    11
Direct
  0.0036970471913240  0.0028626911608690  0.0805828249155060
  0.3576869902696284  0.0021515256078340  0.0692034630430057
  0.0031546275621278  0.3559309420303641  0.0692172305636662
  0.6485945847054488  0.6480813285685373  0.0692471712793412
  0.3274246022549104  0.3248821655758584  0.0698251454907386
  0.6810018232415813  0.0048048804098059  0.0705650348490755
  0.0036701636205886  0.6783051607006254  0.0706710264442996
  0.0009280636129037  0.5004093556870499  0.3534573842629306
  0.1672552074723537  0.3337862692354598  0.3533890999513452
  0.0005287334794561  0.0003931826184642  0.3532969121072708
  0.1671832591878622  0.8335569011521999  0.3534258151398049
  0.5002633224812173  0.5005129008252671  0.3534346537343874
  0.6672054428381973  0.3337541729367767  0.3537564513542805
  0.5003138711947168 -0.0001039963187523  0.3534826761500043
  0.6670529275543752  0.8334398531429675  0.3534244440476915
 
  0.00000000E+00  0.00000000E+00  0.00000000E+00
  0.00000000E+00  0.00000000E+00  0.00000000E+00
  0.00000000E+00  0.00000000E+00  0.00000000E+00
  0.00000000E+00  0.00000000E+00  0.00000000E+00
  0.00000000E+00  0.00000000E+00  0.00000000E+00
  0.00000000E+00  0.00000000E+00  0.00000000E+00
  0.00000000E+00  0.00000000E+00  0.00000000E+00
  0.00000000E+00  0.00000000E+00  0.00000000E+00
  0.00000000E+00  0.00000000E+00  0.00000000E+00
  0.00000000E+00  0.00000000E+00  0.00000000E+00
  0.00000000E+00  0.00000000E+00  0.00000000E+00
  0.00000000E+00  0.00000000E+00  0.00000000E+00
  0.00000000E+00  0.00000000E+00  0.00000000E+00
  0.00000000E+00  0.00000000E+00  0.00000000E+00
  0.00000000E+00  0.00000000E+00  0.00000000E+00
