Graphene-B4C3 Hollow 1 with lattice para
   1.00000000000000     
     4.2262039704680605    2.4399999999999999    0.0000000000000000
    -4.2262039704680605    2.4399999999999999    0.0000000000000000
     0.0000000000000000    0.0000000000000000   15.0000000000000000
   B    C 
     4    11
Direct
  0.0383149243265202 -0.0283176839887373  0.1045885799853166
  0.3936708381522751 -0.0282813719410103  0.1019187838966682
  0.0379702298647580  0.3265997753885023  0.1011267129871325
  0.6837961345009783  0.6169765402372016  0.1014346710675296
  0.3622755885253381  0.2947360736640232  0.1018409315304377
  0.7158248991245948 -0.0275738273452469  0.1024150388136876
  0.0393997034019634  0.6491532615432213  0.1019033324828879
  0.0809904566875072  0.4159770955702188  0.3370443346725188
  0.2475270899151155  0.2491698199764442  0.3371737963596275
  0.0810164189306023  0.9159697220473342  0.3370597985151308
  0.2475662099440326  0.7493568482968586  0.3370071222535080
  0.5808710718068182  0.4158946064421032  0.3370227596913228
  0.7474307544825083  0.2492562330996214  0.3370083110896163
  0.5807638260767425  0.9157810351724063  0.3371977428055639
  0.7474314098157947  0.7491803162815266  0.3370374171823725
 
  0.00000000E+00  0.00000000E+00  0.00000000E+00
  0.00000000E+00  0.00000000E+00  0.00000000E+00
  0.00000000E+00  0.00000000E+00  0.00000000E+00
  0.00000000E+00  0.00000000E+00  0.00000000E+00
  0.00000000E+00  0.00000000E+00  0.00000000E+00
  0.00000000E+00  0.00000000E+00  0.00000000E+00
  0.00000000E+00  0.00000000E+00  0.00000000E+00
  0.00000000E+00  0.00000000E+00  0.00000000E+00
  0.00000000E+00  0.00000000E+00  0.00000000E+00
  0.00000000E+00  0.00000000E+00  0.00000000E+00
  0.00000000E+00  0.00000000E+00  0.00000000E+00
  0.00000000E+00  0.00000000E+00  0.00000000E+00
  0.00000000E+00  0.00000000E+00  0.00000000E+00
  0.00000000E+00  0.00000000E+00  0.00000000E+00
  0.00000000E+00  0.00000000E+00  0.00000000E+00
