BC3 with lattice parameter 5.169        
   1.00000000000000     
     4.4764850000000003    2.5844999999999998    0.0000000000000000
    -4.4764850000000003    2.5844999999999998    0.0000000000000000
     0.0000000000000000    0.0000000000000000   15.0000000000000000
   B    C 
     2     6
Direct
  0.3383342104147297  0.6691650863061478  0.2500000000000000
  0.6716663051229065  0.3358318920576716  0.2500000000000000
  0.1637461611801416  0.3199999278236884  0.2500000000000000
  0.3224999199902666  0.1612503758475316  0.2500000000000000
  0.1637543610070468  0.8437488795179712  0.2500000000000000
  0.8462441044432359  0.1612508832898203  0.2500000000000000
  0.6874995780892896  0.8437500043996433  0.2500000000000000
  0.8462513597523853  0.6849989507575253  0.2500000000000000
 
  0.00000000E+00  0.00000000E+00  0.00000000E+00
  0.00000000E+00  0.00000000E+00  0.00000000E+00
  0.00000000E+00  0.00000000E+00  0.00000000E+00
  0.00000000E+00  0.00000000E+00  0.00000000E+00
  0.00000000E+00  0.00000000E+00  0.00000000E+00
  0.00000000E+00  0.00000000E+00  0.00000000E+00
  0.00000000E+00  0.00000000E+00  0.00000000E+00
  0.00000000E+00  0.00000000E+00  0.00000000E+00
