k-points 33
0
Gamma
33    33    1
0    0    0