Graphene-B4C3 Hollow 2 with lattice para
   1.00000000000000     
     4.2123475640075094    2.4319999999999999    0.0000000000000000
    -4.2123475640075094    2.4319999999999999    0.0000000000000000
     0.0000000000000000    0.0000000000000000   15.0000000000000000
   B    C 
     4    11
Direct
  0.0044225259611073  0.0029423679401197  0.0998125923823938
  0.3595659401132548  0.0029454666588453  0.1008197645626199
  0.0044299350632408  0.3580818622588802  0.1008219451222736
  0.6492853074912426  0.6478009427140982  0.1008254810243228
  0.3279286829865593  0.3264421018204995  0.1006436966970036
  0.6809321744546589  0.0029513319505390  0.1006392393946895
  0.0044375168869402  0.6794425728330115  0.1006387888353650
  0.1664333026785901  0.3331854583634527  0.3384056961110765
  0.3331187763922338  0.1665000214908716  0.3384074114390514
  0.1664716052314769  0.8332065947168875  0.3384095534561049
  0.3331203442094271  0.6665208580809592  0.3383016073483718
  0.6664531311847691  0.3331863159196716  0.3383015916397595
  0.8331388695435403  0.1665378596034607  0.3384089786851467
  0.6664541581861475  0.8331688967563740  0.3384053948321247
  0.8331017296168179  0.6665213488923407  0.3384042584697226
 
  0.00000000E+00  0.00000000E+00  0.00000000E+00
  0.00000000E+00  0.00000000E+00  0.00000000E+00
  0.00000000E+00  0.00000000E+00  0.00000000E+00
  0.00000000E+00  0.00000000E+00  0.00000000E+00
  0.00000000E+00  0.00000000E+00  0.00000000E+00
  0.00000000E+00  0.00000000E+00  0.00000000E+00
  0.00000000E+00  0.00000000E+00  0.00000000E+00
  0.00000000E+00  0.00000000E+00  0.00000000E+00
  0.00000000E+00  0.00000000E+00  0.00000000E+00
  0.00000000E+00  0.00000000E+00  0.00000000E+00
  0.00000000E+00  0.00000000E+00  0.00000000E+00
  0.00000000E+00  0.00000000E+00  0.00000000E+00
  0.00000000E+00  0.00000000E+00  0.00000000E+00
  0.00000000E+00  0.00000000E+00  0.00000000E+00
  0.00000000E+00  0.00000000E+00  0.00000000E+00
