Graphene-BC3 Bridge with lattice paramet
   1.00000000000000     
     4.3630359842660011    2.5189999999999997    0.0000000000000000
    -4.3630359842660011    2.5189999999999997    0.0000000000000000
     0.0000000000000000    0.0000000000000000   15.0000000000000000
   B    C 
     2    14
Direct
  0.3249337880833572  0.6834831321169137  0.1010359577625428
  0.6584165141041668  0.3500306878885983  0.1008256877504819
  0.1512118026768683  0.3362038221906906  0.1008971806259538
  0.3109259662354520  0.1765552790987058  0.1003855053906933
  0.1511762365204963  0.8572538621701580  0.1000977161579423
  0.8320051123098623  0.1764219203225249  0.1012273439491289
  0.6721844431767275  0.8571513853839314  0.1008431988291159
  0.8319230231901835  0.6975240879214218  0.1003254681099581
  0.2633644031534565  0.2355584827433791  0.3257328529293772
  0.4299497356209044  0.0690045502504885  0.3256976126368781
  0.2634008367471156  0.7356737070208439  0.3253781824018191
  0.4301352852379717  0.5689458331483157  0.3255812473895813
  0.7633713747725414  0.2356904540979267  0.3255763738126318
  0.9300682466614869  0.0690044411533771  0.3256409177423722
  0.7635291185161350  0.7357157031831361  0.3257344719394066
  0.9300627796599800  0.5691079846429139  0.3256869492387735
 
  0.00000000E+00  0.00000000E+00  0.00000000E+00
  0.00000000E+00  0.00000000E+00  0.00000000E+00
  0.00000000E+00  0.00000000E+00  0.00000000E+00
  0.00000000E+00  0.00000000E+00  0.00000000E+00
  0.00000000E+00  0.00000000E+00  0.00000000E+00
  0.00000000E+00  0.00000000E+00  0.00000000E+00
  0.00000000E+00  0.00000000E+00  0.00000000E+00
  0.00000000E+00  0.00000000E+00  0.00000000E+00
  0.00000000E+00  0.00000000E+00  0.00000000E+00
  0.00000000E+00  0.00000000E+00  0.00000000E+00
  0.00000000E+00  0.00000000E+00  0.00000000E+00
  0.00000000E+00  0.00000000E+00  0.00000000E+00
  0.00000000E+00  0.00000000E+00  0.00000000E+00
  0.00000000E+00  0.00000000E+00  0.00000000E+00
  0.00000000E+00  0.00000000E+00  0.00000000E+00
  0.00000000E+00  0.00000000E+00  0.00000000E+00
