Graphene-B4C3 Bridge with lattice parame
   1.00000000000000     
     4.2218738434491385    2.4375000000000000    0.0000000000000000
    -4.2218738434491385    2.4375000000000000    0.0000000000000000
     0.0000000000000000    0.0000000000000000   15.0000000000000000
   B    C 
     4    11
Direct
  0.0213854118167648 -0.0134066638704531  0.1017489398124651
  0.3766307385053553 -0.0131130091361100  0.1004079658898031
  0.0213100884187581  0.3415318192901868  0.1003738302382787
  0.6663820465474857  0.6313265319920702  0.1003763892904667
  0.3447553778928010  0.3100200591850257  0.1004599166682495
  0.6979946955932239 -0.0134728207931644  0.1002957188454689
  0.0209069684208783  0.6628612240259510  0.1004630869926382
  0.0684289040249448  0.4308847851386907  0.3376542522604866
  0.2349686198490547  0.2640959768526737  0.3376906832475958
  0.0683905191614218  0.9310192386638325  0.3375328156454065
  0.2350216136471634  0.7642703536399178  0.3376805772611388
  0.5682435678874740  0.4309364757088741  0.3376141989084825
  0.7350030204164507  0.2642830869104446  0.3376991822195827
  0.5682133281975698  0.9307142688581901  0.3377582852389983
  0.7349924329539760  0.7641493402005661  0.3376234908142740
 
  0.00000000E+00  0.00000000E+00  0.00000000E+00
  0.00000000E+00  0.00000000E+00  0.00000000E+00
  0.00000000E+00  0.00000000E+00  0.00000000E+00
  0.00000000E+00  0.00000000E+00  0.00000000E+00
  0.00000000E+00  0.00000000E+00  0.00000000E+00
  0.00000000E+00  0.00000000E+00  0.00000000E+00
  0.00000000E+00  0.00000000E+00  0.00000000E+00
  0.00000000E+00  0.00000000E+00  0.00000000E+00
  0.00000000E+00  0.00000000E+00  0.00000000E+00
  0.00000000E+00  0.00000000E+00  0.00000000E+00
  0.00000000E+00  0.00000000E+00  0.00000000E+00
  0.00000000E+00  0.00000000E+00  0.00000000E+00
  0.00000000E+00  0.00000000E+00  0.00000000E+00
  0.00000000E+00  0.00000000E+00  0.00000000E+00
  0.00000000E+00  0.00000000E+00  0.00000000E+00
