Graphene-Borophene Bridge with lattice p
   1.00000000000000     
     4.3257968919032708    2.4975000000000001    0.0000000000000000
    -4.3257968919032708    2.4975000000000001    0.0000000000000000
     0.0000000000000000    0.0000000000000000   15.0000000000000000
   B    C 
     8     8
Direct
  0.6767186559260296 -0.0075230176908360  0.1664013126738921
  0.3382115749579748 -0.0072873809073486  0.1658708206272518
  0.0075230176908360  0.3232803440739731  0.1664013126738921
  0.0072873809073486  0.6617874250420284  0.1658708206272518
  0.3380435432569718  0.3233013962333426  0.1659528922112379
  0.6766976037666601  0.6619554567430300  0.1659528922112379
  0.6738792472354130  0.3261197527645891  0.1616037793492417
  0.3405586475726309  0.6594403524273723  0.1727832701399127
  0.2426519040242883  0.2573068134521360  0.4027895474363499
  0.4092359349600230  0.0907035762831320  0.4027553741537507
  0.2426356233773657  0.7573633766226364  0.4026211253737036
  0.4092706580312382  0.5907283419687644  0.4026730243122225
  0.7426803250783555  0.2573186749216470  0.4026952835763654
  0.9092779396168307  0.0907210603831722  0.4026169563769605
  0.7426921865478665  0.7573470959757144  0.4027895474363499
  0.9092954237168700  0.5907630650399796  0.4027553741537507
 
  0.00000000E+00  0.00000000E+00  0.00000000E+00
  0.00000000E+00  0.00000000E+00  0.00000000E+00
  0.00000000E+00  0.00000000E+00  0.00000000E+00
  0.00000000E+00  0.00000000E+00  0.00000000E+00
  0.00000000E+00  0.00000000E+00  0.00000000E+00
  0.00000000E+00  0.00000000E+00  0.00000000E+00
  0.00000000E+00  0.00000000E+00  0.00000000E+00
  0.00000000E+00  0.00000000E+00  0.00000000E+00
  0.00000000E+00  0.00000000E+00  0.00000000E+00
  0.00000000E+00  0.00000000E+00  0.00000000E+00
  0.00000000E+00  0.00000000E+00  0.00000000E+00
  0.00000000E+00  0.00000000E+00  0.00000000E+00
  0.00000000E+00  0.00000000E+00  0.00000000E+00
  0.00000000E+00  0.00000000E+00  0.00000000E+00
  0.00000000E+00  0.00000000E+00  0.00000000E+00
  0.00000000E+00  0.00000000E+00  0.00000000E+00
