Graphene-B4C3 Hollow 2 with lattice para
   1.00000000000000     
     4.1993571829507426    2.4245000000000001    0.0000000000000000
    -4.1993571829507426    2.4245000000000001    0.0000000000000000
     0.0000000000000000    0.0000000000000000   15.0000000000000000
   B    C 
     4    11
Direct
  0.0044134665918250  0.0029372052186407  0.0996457417387227
  0.3595557325681361  0.0029386003724264  0.1010071761928017
  0.0044196422089155  0.3580729318151818  0.1010093824983667
  0.6492735142294234  0.6477925943879828  0.1010142182426583
  0.3280589935440822  0.3265765985718231  0.1007870943523212
  0.6807748431843089  0.0029439357852189  0.1007854596266039
  0.0044285964758805  0.6792895763613016  0.1007857212604734
  0.1664421203401641  0.3331914329796817  0.3383020363277153
  0.3331271956116506  0.1665058073669930  0.3383039155363112
  0.1664819557644109  0.8332141805222290  0.3383060695081417
  0.3331291195402243  0.6665279251138325  0.3381954447863934
  0.6664630808570225  0.3331926317324584  0.3381953408587448
  0.8331493141855137  0.1665455804705068  0.3383055885675173
  0.6664645013679465  0.8331761319125472  0.3383019052310081
  0.8331119235305032  0.6665288673891874  0.3383009052722463
 
  0.00000000E+00  0.00000000E+00  0.00000000E+00
  0.00000000E+00  0.00000000E+00  0.00000000E+00
  0.00000000E+00  0.00000000E+00  0.00000000E+00
  0.00000000E+00  0.00000000E+00  0.00000000E+00
  0.00000000E+00  0.00000000E+00  0.00000000E+00
  0.00000000E+00  0.00000000E+00  0.00000000E+00
  0.00000000E+00  0.00000000E+00  0.00000000E+00
  0.00000000E+00  0.00000000E+00  0.00000000E+00
  0.00000000E+00  0.00000000E+00  0.00000000E+00
  0.00000000E+00  0.00000000E+00  0.00000000E+00
  0.00000000E+00  0.00000000E+00  0.00000000E+00
  0.00000000E+00  0.00000000E+00  0.00000000E+00
  0.00000000E+00  0.00000000E+00  0.00000000E+00
  0.00000000E+00  0.00000000E+00  0.00000000E+00
  0.00000000E+00  0.00000000E+00  0.00000000E+00
