Graphene-B4C3 Top with lattice parameter
   1.00000000000000     
     4.2348642245059045    2.4449999999999998    0.0000000000000000
    -4.2348642245059045    2.4449999999999998    0.0000000000000000
     0.0000000000000000    0.0000000000000000   15.0000000000000000
   B    C 
     4    11
Direct
  0.0040517561731539  0.0026924371443077  0.1006243161537448
  0.3592150033300898  0.0030263388407704  0.1002427082631543
  0.0037039294900632  0.3575108263814196  0.1002432982505548
  0.6492217220603190  0.6475207241876298  0.1002400359674901
  0.3273723366161153  0.3256774454729408  0.1002136385281961
  0.6810524849739625  0.0030185499115956  0.1002136814252767
  0.0037126587478719  0.6793534212309779  0.1002106701834917
  0.0001391721629984  0.5000677231605781  0.3351937405203710
  0.1667858428279245  0.3334587289334599  0.3352272193642697
  0.0001205081144088  0.0000784052747749  0.3351582854412620
  0.1668346845161717  0.8334145539509102  0.3352309106782520
  0.5001336544444872  0.5001117063771203  0.3351964107252568
  0.6667874955799392  0.3334135247768941  0.3350981874571171
  0.5000882356693298  0.0000595358914273  0.3351922136948485
  0.6667411819598572  0.8333634117985187  0.3352273500133954
 
  0.00000000E+00  0.00000000E+00  0.00000000E+00
  0.00000000E+00  0.00000000E+00  0.00000000E+00
  0.00000000E+00  0.00000000E+00  0.00000000E+00
  0.00000000E+00  0.00000000E+00  0.00000000E+00
  0.00000000E+00  0.00000000E+00  0.00000000E+00
  0.00000000E+00  0.00000000E+00  0.00000000E+00
  0.00000000E+00  0.00000000E+00  0.00000000E+00
  0.00000000E+00  0.00000000E+00  0.00000000E+00
  0.00000000E+00  0.00000000E+00  0.00000000E+00
  0.00000000E+00  0.00000000E+00  0.00000000E+00
  0.00000000E+00  0.00000000E+00  0.00000000E+00
  0.00000000E+00  0.00000000E+00  0.00000000E+00
  0.00000000E+00  0.00000000E+00  0.00000000E+00
  0.00000000E+00  0.00000000E+00  0.00000000E+00
  0.00000000E+00  0.00000000E+00  0.00000000E+00
