Graphene-B4C3 Top with lattice parameter
   1.00000000000000     
     4.2435244785437485    2.4499999999999997    0.0000000000000000
    -4.2435244785437485    2.4499999999999997    0.0000000000000000
     0.0000000000000000    0.0000000000000000   15.0000000000000000
   B    C 
     4    11
Direct
  0.0040605352413478  0.0026937342725256  0.1004135181584302
  0.3592194092148633  0.0030445986981305  0.1001448357468796
  0.0037082715521856  0.3575028009176280  0.1001451342667468
  0.6492495604837450  0.6475380167991529  0.1001428687991710
  0.3272953311491337  0.3255924668914883  0.1001009693918446
  0.6811582738100840  0.0030311343239655  0.1001020387399965
  0.0037175437556780  0.6794542224335681  0.1000991055644840
  0.0001296786916128  0.5000613290388793  0.3352964564568883
  0.1667769034682520  0.3334529132370599  0.3353321880764187
  0.0001112192873989  0.0000714839067257  0.3352674205609523
  0.1668240416502971  0.8334055488736098  0.3353357198319253
  0.5001238434796486  0.5001036036937396  0.3352988141372538
  0.6667769045606965  0.3334064105294735  0.3352065120999422
  0.5000799293174101  0.0000528403152898  0.3352948359248845
  0.6667292210043382  0.8333562294020903  0.3353322489108649
 
  0.00000000E+00  0.00000000E+00  0.00000000E+00
  0.00000000E+00  0.00000000E+00  0.00000000E+00
  0.00000000E+00  0.00000000E+00  0.00000000E+00
  0.00000000E+00  0.00000000E+00  0.00000000E+00
  0.00000000E+00  0.00000000E+00  0.00000000E+00
  0.00000000E+00  0.00000000E+00  0.00000000E+00
  0.00000000E+00  0.00000000E+00  0.00000000E+00
  0.00000000E+00  0.00000000E+00  0.00000000E+00
  0.00000000E+00  0.00000000E+00  0.00000000E+00
  0.00000000E+00  0.00000000E+00  0.00000000E+00
  0.00000000E+00  0.00000000E+00  0.00000000E+00
  0.00000000E+00  0.00000000E+00  0.00000000E+00
  0.00000000E+00  0.00000000E+00  0.00000000E+00
  0.00000000E+00  0.00000000E+00  0.00000000E+00
  0.00000000E+00  0.00000000E+00  0.00000000E+00
