Graphene-Borophene Bridge with lattice p
   1.00000000000000     
     4.3084763838275819    2.4874999999999998    0.0000000000000000
    -4.3084763838275819    2.4874999999999998    0.0000000000000000
     0.0000000000000000    0.0000000000000000   15.0000000000000000
   B    C 
     8     8
Direct
  0.6721151998664032 -0.0034776384790666  0.1675255586814664
  0.3348977243200781 -0.0033064098034692  0.1676044434319637
  0.0034776384790666  0.3278838001335993  0.1675255586814664
  0.0033064098034692  0.6651012756799242  0.1676044434319636
  0.3345883749781682  0.3279583437417267  0.1663291770438556
  0.6720406562582761  0.6654106250218343  0.1663291770438556
  0.6696972132173206  0.3303017867826821  0.1547518190126909
  0.3363408293429797  0.6636581706570234  0.1802389897181620
  0.2466693464156377  0.2532509195500223  0.4017692209042081
  0.4133306448984945  0.0866527551300601  0.4018768182484517
  0.2467252228432136  0.7532737771567883  0.4019691559201738
  0.4134040133082179  0.5865949866917849  0.4019254538651347
  0.7466569379211947  0.2533420620788078  0.4018031567669535
  0.9133151296942617  0.0866838703057410  0.4016343214303659
  0.7467480804499801  0.7533296535843645  0.4017692209042081
  0.9133462448699424  0.5866683551015079  0.4018768182484516
 
  0.00000000E+00  0.00000000E+00  0.00000000E+00
  0.00000000E+00  0.00000000E+00  0.00000000E+00
  0.00000000E+00  0.00000000E+00  0.00000000E+00
  0.00000000E+00  0.00000000E+00  0.00000000E+00
  0.00000000E+00  0.00000000E+00  0.00000000E+00
  0.00000000E+00  0.00000000E+00  0.00000000E+00
  0.00000000E+00  0.00000000E+00  0.00000000E+00
  0.00000000E+00  0.00000000E+00  0.00000000E+00
  0.00000000E+00  0.00000000E+00  0.00000000E+00
  0.00000000E+00  0.00000000E+00  0.00000000E+00
  0.00000000E+00  0.00000000E+00  0.00000000E+00
  0.00000000E+00  0.00000000E+00  0.00000000E+00
  0.00000000E+00  0.00000000E+00  0.00000000E+00
  0.00000000E+00  0.00000000E+00  0.00000000E+00
  0.00000000E+00  0.00000000E+00  0.00000000E+00
  0.00000000E+00  0.00000000E+00  0.00000000E+00
