Graphene-Borophene Hollow 1 with lattice
   1.00000000000000     
     4.3188686886729952    2.4935000000000000    0.0000000000000000
    -4.3188686886729952    2.4935000000000000    0.0000000000000000
     0.0000000000000000    0.0000000000000000   15.0000000000000000
   B    C 
     8     8
Direct
  0.6723787516425757 -0.0031738234216684  0.1667348787759634
  0.3339203338014554 -0.0030362780365766  0.1664418398432626
  0.0031738234216684  0.3276202483574268  0.1667348787759634
  0.0030362780365766  0.6660786661985472  0.1664418398432626
  0.3335088129982762  0.3275527467211717  0.1665930410874957
  0.6724462532788306  0.6664901870017262  0.1665930410874957
  0.6694888192346617  0.3305101807653404  0.1613868646965930
  0.3363308427486419  0.6636681572513604  0.1722581762616371
  0.2746721413146028  0.2252672968992983  0.4028424600683980
  0.4413966614204753  0.0585103569767773  0.4030601268705996
  0.2747216346278455  0.7252773653721575  0.4030626024008059
  0.4414198293398376  0.5585791706601652  0.4030239452073865
  0.7746898445241902  0.2253091554758130  0.4029557102845199
  0.9414775163753635  0.0585214836246388  0.4027680078576294
  0.7747317031007044  0.7253268586853994  0.4028424600683980
  0.9414886430232249  0.5586023385795266  0.4030601268705996
 
  0.00000000E+00  0.00000000E+00  0.00000000E+00
  0.00000000E+00  0.00000000E+00  0.00000000E+00
  0.00000000E+00  0.00000000E+00  0.00000000E+00
  0.00000000E+00  0.00000000E+00  0.00000000E+00
  0.00000000E+00  0.00000000E+00  0.00000000E+00
  0.00000000E+00  0.00000000E+00  0.00000000E+00
  0.00000000E+00  0.00000000E+00  0.00000000E+00
  0.00000000E+00  0.00000000E+00  0.00000000E+00
  0.00000000E+00  0.00000000E+00  0.00000000E+00
  0.00000000E+00  0.00000000E+00  0.00000000E+00
  0.00000000E+00  0.00000000E+00  0.00000000E+00
  0.00000000E+00  0.00000000E+00  0.00000000E+00
  0.00000000E+00  0.00000000E+00  0.00000000E+00
  0.00000000E+00  0.00000000E+00  0.00000000E+00
  0.00000000E+00  0.00000000E+00  0.00000000E+00
  0.00000000E+00  0.00000000E+00  0.00000000E+00
