Graphene-B4C3 Hollow 2 with lattice para
   1.00000000000000     
     4.1941610305280363    2.4215000000000000    0.0000000000000000
    -4.1941610305280363    2.4215000000000000    0.0000000000000000
     0.0000000000000000    0.0000000000000000   15.0000000000000000
   B    C 
     4    11
Direct
  0.0043771034375357  0.0029050111604287  0.0996270992052503
  0.3595309532620872  0.0029114895171578  0.1011163869770481
  0.0043832571803611  0.3580593307256841  0.1011189329567393
  0.6492445216713030  0.6477704621258065  0.1011281589896834
  0.3280931264859986  0.3266108144939157  0.1008807980338201
  0.6807005415491750  0.0029266053353810  0.1008755830455747
  0.0043972566552684  0.6792289435316794  0.1008751934371948
  0.1664681975264672  0.3332093227074721  0.3382296578867535
  0.3331526800087657  0.1665246429308887  0.3382313493846218
  0.1665050673636402  0.8332303980027310  0.3382330556375356
  0.3331542621009048  0.6665447170650479  0.3381210121206886
  0.6664870505957995  0.3332102715492047  0.3381210629195132
  0.8331728993481707  0.1665613346221072  0.3382323430675063
  0.6664884936156211  0.8331949948966734  0.3382282749262458
  0.8331385891989086  0.6665456613358323  0.3382270914118515
 
  0.00000000E+00  0.00000000E+00  0.00000000E+00
  0.00000000E+00  0.00000000E+00  0.00000000E+00
  0.00000000E+00  0.00000000E+00  0.00000000E+00
  0.00000000E+00  0.00000000E+00  0.00000000E+00
  0.00000000E+00  0.00000000E+00  0.00000000E+00
  0.00000000E+00  0.00000000E+00  0.00000000E+00
  0.00000000E+00  0.00000000E+00  0.00000000E+00
  0.00000000E+00  0.00000000E+00  0.00000000E+00
  0.00000000E+00  0.00000000E+00  0.00000000E+00
  0.00000000E+00  0.00000000E+00  0.00000000E+00
  0.00000000E+00  0.00000000E+00  0.00000000E+00
  0.00000000E+00  0.00000000E+00  0.00000000E+00
  0.00000000E+00  0.00000000E+00  0.00000000E+00
  0.00000000E+00  0.00000000E+00  0.00000000E+00
  0.00000000E+00  0.00000000E+00  0.00000000E+00
