Graphene-B4C3 Bridge with lattice parame
   1.00000000000000     
     4.2071514115848023    2.4289999999999998    0.0000000000000000
    -4.2071514115848023    2.4289999999999998    0.0000000000000000
     0.0000000000000000    0.0000000000000000   15.0000000000000000
   B    C 
     4    11
Direct
  0.0167064903302425 -0.0091163452271127  0.1010924302295284
  0.3718234508183640 -0.0088015054775468  0.1013079817806202
  0.0165926683056888  0.3458965658850932  0.1014251200447827
  0.6617455907388000  0.6358250059107748  0.1013963044059815
  0.3403029282467608  0.3144197344098353  0.1012214461177530
  0.6932865684345710 -0.0089877102988871  0.1013593190604275
  0.0164077944316695  0.6672027940579169  0.1012739476535679
  0.0723920774268954  0.4270236945768255  0.3369982173857846
  0.2390373139888667  0.2603614561795333  0.3371434730368515
  0.0724071655736811  0.9270771404400748  0.3370460014002891
  0.2390946603135999  0.7604018684497617  0.3370051034631985
  0.5723869231685325  0.4270421378183819  0.3370135431481291
  0.7390547427672614  0.2603790967027099  0.3369531342819891
  0.5723577397423097  0.9270154319826996  0.3371136930464724
  0.7390312190460783  0.7603613012566368  0.3370296182779608
 
  0.00000000E+00  0.00000000E+00  0.00000000E+00
  0.00000000E+00  0.00000000E+00  0.00000000E+00
  0.00000000E+00  0.00000000E+00  0.00000000E+00
  0.00000000E+00  0.00000000E+00  0.00000000E+00
  0.00000000E+00  0.00000000E+00  0.00000000E+00
  0.00000000E+00  0.00000000E+00  0.00000000E+00
  0.00000000E+00  0.00000000E+00  0.00000000E+00
  0.00000000E+00  0.00000000E+00  0.00000000E+00
  0.00000000E+00  0.00000000E+00  0.00000000E+00
  0.00000000E+00  0.00000000E+00  0.00000000E+00
  0.00000000E+00  0.00000000E+00  0.00000000E+00
  0.00000000E+00  0.00000000E+00  0.00000000E+00
  0.00000000E+00  0.00000000E+00  0.00000000E+00
  0.00000000E+00  0.00000000E+00  0.00000000E+00
  0.00000000E+00  0.00000000E+00  0.00000000E+00
