Graphene-B4C3 Hollow 2 with lattice para
   1.00000000000000     
     4.1855007764901915    2.4165000000000001    0.0000000000000000
    -4.1855007764901915    2.4165000000000001    0.0000000000000000
     0.0000000000000000    0.0000000000000000   15.0000000000000000
   B    C 
     4    11
Direct
  0.0043816088424202  0.0029094260122079  0.0993733143535492
  0.3595308762825752  0.0029156356909992  0.1012812718704592
  0.0043905088972875  0.3580594799335567  0.1012836764077516
  0.6492420722599604  0.6477673007343733  0.1012871691873202
  0.3281767441278876  0.3267008770391803  0.1010020168558926
  0.6806044284052163  0.0029175992966107  0.1009875626018644
  0.0043911585381940  0.6791301039124765  0.1009852115606843
  0.1664676451655790  0.3332098828431452  0.3381571337695040
  0.3331529154506691  0.1665248377385317  0.3381588688650009
  0.1665066127967520  0.8332322779636587  0.3381608029451900
  0.3331558275329833  0.6665473352573541  0.3380486419233479
  0.6664898679736655  0.3332120414967150  0.3380486522586670
  0.8331745331679647  0.1665630892981509  0.3381602728453030
  0.6664913233279032  0.8331955467243300  0.3381563060599604
  0.8331378772309486  0.6665485660587204  0.3381550984955316
 
  0.00000000E+00  0.00000000E+00  0.00000000E+00
  0.00000000E+00  0.00000000E+00  0.00000000E+00
  0.00000000E+00  0.00000000E+00  0.00000000E+00
  0.00000000E+00  0.00000000E+00  0.00000000E+00
  0.00000000E+00  0.00000000E+00  0.00000000E+00
  0.00000000E+00  0.00000000E+00  0.00000000E+00
  0.00000000E+00  0.00000000E+00  0.00000000E+00
  0.00000000E+00  0.00000000E+00  0.00000000E+00
  0.00000000E+00  0.00000000E+00  0.00000000E+00
  0.00000000E+00  0.00000000E+00  0.00000000E+00
  0.00000000E+00  0.00000000E+00  0.00000000E+00
  0.00000000E+00  0.00000000E+00  0.00000000E+00
  0.00000000E+00  0.00000000E+00  0.00000000E+00
  0.00000000E+00  0.00000000E+00  0.00000000E+00
  0.00000000E+00  0.00000000E+00  0.00000000E+00
