BC3 with lattice parameter 5.169        
   1.00000000000000     
     4.4764850000000003    2.5844999999999998    0.0000000000000000
    -4.4764850000000003    2.5844999999999998    0.0000000000000000
     0.0000000000000000    0.0000000000000000   15.0000000000000000
   B    C 
     2     6
Direct
  0.3383322181547541  0.6691650921016326  0.2500000000000000
  0.6716634079408479  0.3358347915968524  0.2500000000000000
  0.1637030346259360  0.3199271321738858  0.2500000000000000
  0.3224265278168143  0.1612249545986392  0.2500000000000000
  0.1637286332727086  0.8437972353932158  0.2500000000000000
  0.8462712748259477  0.1612028311318068  0.2500000000000000
  0.6875733500495957  0.8437732742423312  0.2500000000000000
  0.8462975533134048  0.6850706887616352  0.2500000000000000
 
  0.00000000E+00  0.00000000E+00  0.00000000E+00
  0.00000000E+00  0.00000000E+00  0.00000000E+00
  0.00000000E+00  0.00000000E+00  0.00000000E+00
  0.00000000E+00  0.00000000E+00  0.00000000E+00
  0.00000000E+00  0.00000000E+00  0.00000000E+00
  0.00000000E+00  0.00000000E+00  0.00000000E+00
  0.00000000E+00  0.00000000E+00  0.00000000E+00
  0.00000000E+00  0.00000000E+00  0.00000000E+00
