BC3 with lattice parameter 5.169        
   1.00000000000000     
     4.4764850000000003    2.5844999999999998    0.0000000000000000
    -4.4764850000000003    2.5844999999999998    0.0000000000000000
     0.0000000000000000    0.0000000000000000   15.0000000000000000
   B    C 
     2     6
Direct
  0.3383303433200963  0.6691643220287070  0.2500000000000000
  0.6716552153790442  0.3358414604455469  0.2500000000000000
  0.1637394633814192  0.3199996222090657  0.2500000000000000
  0.3225021842022109  0.1612639661328585  0.2500000000000000
  0.1637643005245239  0.8437638408621743  0.2500000000000000
  0.8462386341522475  0.1612368417574507  0.2500000000000000
  0.6874985035840141  0.8437300034210440  0.2500000000000000
  0.8462673554564464  0.6849959431431523  0.2500000000000000
 
  0.00000000E+00  0.00000000E+00  0.00000000E+00
  0.00000000E+00  0.00000000E+00  0.00000000E+00
  0.00000000E+00  0.00000000E+00  0.00000000E+00
  0.00000000E+00  0.00000000E+00  0.00000000E+00
  0.00000000E+00  0.00000000E+00  0.00000000E+00
  0.00000000E+00  0.00000000E+00  0.00000000E+00
  0.00000000E+00  0.00000000E+00  0.00000000E+00
  0.00000000E+00  0.00000000E+00  0.00000000E+00
