Graphene-Borophene Bridge with lattice p
   1.00000000000000     
     4.3344571459411148    2.5024999999999999    0.0000000000000000
    -4.3344571459411148    2.5024999999999999    0.0000000000000000
     0.0000000000000000    0.0000000000000000   15.0000000000000000
   B    C 
     8     8
Direct
  0.6696662864810878 -0.0000699038291767  0.1640425537580094
  0.3306483215846662  0.0000312123671172  0.1642091550469492
  0.0000699038291767  0.3303327135189147  0.1640425537580094
 -0.0000312123671172  0.6693506784153362  0.1642091550469492
  0.3306992204104871  0.3306340973247090  0.1642374918037940
  0.6693649026752935  0.6692997795895155  0.1642374918037940
  0.6666332295418205  0.3333657704581822  0.1757482401956386
  0.3332784249624114  0.6667205750375912  0.1669237555250644
  0.2529847647618587  0.2531688274587047  0.4035637551097288
  0.4187099287180485  0.0823696157058803  0.4026449874599131
  0.2503975747698530  0.7496014252301495  0.4020323028194504
  0.4159088760651575  0.5840901239348454  0.4030282465195186
  0.7481106094066390  0.2518883905933635  0.4032727198209833
  0.9157592789919005  0.0842397210081020  0.4041321820959277
  0.7468301725412980  0.7470142352381438  0.4035637551097288
  0.9176293842941222  0.5812890712819541  0.4026449874599131
 
  0.00000000E+00  0.00000000E+00  0.00000000E+00
  0.00000000E+00  0.00000000E+00  0.00000000E+00
  0.00000000E+00  0.00000000E+00  0.00000000E+00
  0.00000000E+00  0.00000000E+00  0.00000000E+00
  0.00000000E+00  0.00000000E+00  0.00000000E+00
  0.00000000E+00  0.00000000E+00  0.00000000E+00
  0.00000000E+00  0.00000000E+00  0.00000000E+00
  0.00000000E+00  0.00000000E+00  0.00000000E+00
  0.00000000E+00  0.00000000E+00  0.00000000E+00
  0.00000000E+00  0.00000000E+00  0.00000000E+00
  0.00000000E+00  0.00000000E+00  0.00000000E+00
  0.00000000E+00  0.00000000E+00  0.00000000E+00
  0.00000000E+00  0.00000000E+00  0.00000000E+00
  0.00000000E+00  0.00000000E+00  0.00000000E+00
  0.00000000E+00  0.00000000E+00  0.00000000E+00
  0.00000000E+00  0.00000000E+00  0.00000000E+00
