Graphene-B4C3 Bridge with lattice parame
   1.00000000000000     
     4.1837687256826230    2.4155000000000002    0.0000000000000000
    -4.1837687256826230    2.4155000000000002    0.0000000000000000
     0.0000000000000000    0.0000000000000000   15.0000000000000000
   B    C 
     4    11
Direct
  0.0309757513284110 -0.0228138050032715  0.0955781505083276
  0.3858421517953052 -0.0227173852208710  0.1027875595479787
  0.0307944905123493  0.3318919048612724  0.1027293095360066
  0.6763469248091329  0.6223791528052004  0.1027652611852848
  0.3546368249423807  0.3008449795675736  0.1016621446282430
  0.7074583975496420 -0.0228367001781782  0.1021398097417037
  0.0313450143122305  0.6537174458041682  0.1017291750812589
  0.0598882167808027  0.4390883942944205  0.3369797455727799
  0.2265261811218462  0.2723633768124059  0.3370356322128012
  0.0598563044897004  0.9390848151094910  0.3369411337620258
  0.2265616699424874  0.7723942063238488  0.3370205582068499
  0.5597713821345028  0.4390717296958657  0.3369948603732668
  0.7264451741336557  0.2723269196468946  0.3369510807338910
  0.5597314727868100  0.9390012190224236  0.3370742566009393
  0.7264473766940646  0.7723044131254531  0.3369906556419801
 
  0.00000000E+00  0.00000000E+00  0.00000000E+00
  0.00000000E+00  0.00000000E+00  0.00000000E+00
  0.00000000E+00  0.00000000E+00  0.00000000E+00
  0.00000000E+00  0.00000000E+00  0.00000000E+00
  0.00000000E+00  0.00000000E+00  0.00000000E+00
  0.00000000E+00  0.00000000E+00  0.00000000E+00
  0.00000000E+00  0.00000000E+00  0.00000000E+00
  0.00000000E+00  0.00000000E+00  0.00000000E+00
  0.00000000E+00  0.00000000E+00  0.00000000E+00
  0.00000000E+00  0.00000000E+00  0.00000000E+00
  0.00000000E+00  0.00000000E+00  0.00000000E+00
  0.00000000E+00  0.00000000E+00  0.00000000E+00
  0.00000000E+00  0.00000000E+00  0.00000000E+00
  0.00000000E+00  0.00000000E+00  0.00000000E+00
  0.00000000E+00  0.00000000E+00  0.00000000E+00
