Graphene-Borophene Hollow 1 with lattice
   1.00000000000000     
     4.3301270189221919    2.4999999999999991    0.0000000000000000
    -4.3301270189221919    2.4999999999999991    0.0000000000000000
     0.0000000000000000    0.0000000000000000   15.0000000000000000
   B    C 
     8     8
Direct
  0.6713618141038462 -0.0020631548949347  0.1665180797055089
  0.3326516277107645 -0.0020209330841044  0.1667980994146571
  0.0020631548949347  0.3286371858961565  0.1665180797055089
  0.0020209330841044  0.6673473722892374  0.1667980994146571
  0.3325446800781492  0.3285412558927138  0.1668829288067182
  0.6714577441072890  0.6674543199218538  0.1668829288067182
  0.6684914283944209  0.3315075716055819  0.1648278072717821
  0.3352376572335732  0.6647613427664301  0.1692085276915685
  0.2757901499719493  0.2242071795250020  0.4027809623722848
  0.4424771079376693  0.0575464240442878  0.4028279157489362
  0.2757968441619546  0.7242021558380487  0.4027679364664494
  0.4424992863391904  0.5574997136608120  0.4028346937312173
  0.7757786043310436  0.2242203956689588  0.4028275020516244
  0.9424664601093290  0.0575325398906735  0.4027175606911582
  0.7757918204750004  0.7242088500280536  0.4027809623722848
  0.9424525759557157  0.5575218920623336  0.4028279157489362
 
  0.00000000E+00  0.00000000E+00  0.00000000E+00
  0.00000000E+00  0.00000000E+00  0.00000000E+00
  0.00000000E+00  0.00000000E+00  0.00000000E+00
  0.00000000E+00  0.00000000E+00  0.00000000E+00
  0.00000000E+00  0.00000000E+00  0.00000000E+00
  0.00000000E+00  0.00000000E+00  0.00000000E+00
  0.00000000E+00  0.00000000E+00  0.00000000E+00
  0.00000000E+00  0.00000000E+00  0.00000000E+00
  0.00000000E+00  0.00000000E+00  0.00000000E+00
  0.00000000E+00  0.00000000E+00  0.00000000E+00
  0.00000000E+00  0.00000000E+00  0.00000000E+00
  0.00000000E+00  0.00000000E+00  0.00000000E+00
  0.00000000E+00  0.00000000E+00  0.00000000E+00
  0.00000000E+00  0.00000000E+00  0.00000000E+00
  0.00000000E+00  0.00000000E+00  0.00000000E+00
  0.00000000E+00  0.00000000E+00  0.00000000E+00
