Graphene-B4C3 Top with lattice parameter
   1.00000000000000     
     4.2175437164302139    2.4349999999999987    0.0000000000000000
    -4.2175437164302139    2.4349999999999987    0.0000000000000000
     0.0000000000000000    0.0000000000000000   15.0000000000000000
   B    C 
     4    11
Direct
  0.0040440319149645  0.0026901396437995  0.1007688699888158
  0.3592245593219257  0.0029980748297612  0.1003599926128835
  0.0037254291793592  0.3575547666173022  0.1003607136784674
  0.6491721396376267  0.6475048515734515  0.1003572345935550
  0.3275535139859483  0.3258898327993016  0.1003355610647022
  0.6808346927738277  0.0029930695589938  0.1003352188186958
  0.0037303223525469  0.6791696205408493  0.1003323474349796
  0.0001457493851301  0.5000694408284317  0.3350865424170997
  0.1667912251143741  0.3334564132943563  0.3351200817212585
  0.0001264026256982  0.0000782527159516  0.3350492585265233
  0.1668377413656624  0.8334143086068382  0.3351238321224848
  0.5001381924884768  0.5001106869713672  0.3350892394376686
  0.6667927264038328  0.3334132446537935  0.3349885655592093
  0.5000953481191643  0.0000589120672353  0.3350849842162784
  0.6667485919981561  0.8333657186318936  0.3351202244740603
 
  0.00000000E+00  0.00000000E+00  0.00000000E+00
  0.00000000E+00  0.00000000E+00  0.00000000E+00
  0.00000000E+00  0.00000000E+00  0.00000000E+00
  0.00000000E+00  0.00000000E+00  0.00000000E+00
  0.00000000E+00  0.00000000E+00  0.00000000E+00
  0.00000000E+00  0.00000000E+00  0.00000000E+00
  0.00000000E+00  0.00000000E+00  0.00000000E+00
  0.00000000E+00  0.00000000E+00  0.00000000E+00
  0.00000000E+00  0.00000000E+00  0.00000000E+00
  0.00000000E+00  0.00000000E+00  0.00000000E+00
  0.00000000E+00  0.00000000E+00  0.00000000E+00
  0.00000000E+00  0.00000000E+00  0.00000000E+00
  0.00000000E+00  0.00000000E+00  0.00000000E+00
  0.00000000E+00  0.00000000E+00  0.00000000E+00
  0.00000000E+00  0.00000000E+00  0.00000000E+00
