Graphene-BC3 Hollow with lattice paramet
   1.00000000000000     
     4.3682321366887082    2.5219999999999998    0.0000000000000000
    -4.3682321366887082    2.5219999999999998    0.0000000000000000
     0.0000000000000000    0.0000000000000000   15.0000000000000000
   B    C 
     2    14
Direct
  0.3382263159828601  0.6691088777977405  0.1135144017109430
  0.6715625766980393  0.3357758304496770  0.1131861997946242
  0.1645064786279410  0.3216663981652128  0.1131655691912154
  0.3240412525126104  0.1620159153184457  0.1131763624859379
  0.1645055431218643  0.8428279468626485  0.1131676295560233
  0.8453176401230734  0.1620148264129401  0.1131682715817347
  0.6856631331965213  0.8428252498463686  0.1131603783622021
  0.8453172823037705  0.6832942690763701  0.1131703806445473
  0.3334580307969570  0.1667335896816259  0.3380417358212394
  0.5001489864643647  0.0001468489853676  0.3380138272575309
  0.3334371682705777  0.6667231570755076  0.3377143870021218
  0.5001489872618715  0.5000114051720399  0.3380138340748181
  0.8334315592120879  0.1667348503077433  0.3380367881830367
  0.0001088379846536  0.0000590105923763  0.3380190056080629
  0.8334315731885295  0.6667058755648446  0.3380368328067942
  0.0000199675876121  0.5000146153577877  0.3380143959191689
 
  0.00000000E+00  0.00000000E+00  0.00000000E+00
  0.00000000E+00  0.00000000E+00  0.00000000E+00
  0.00000000E+00  0.00000000E+00  0.00000000E+00
  0.00000000E+00  0.00000000E+00  0.00000000E+00
  0.00000000E+00  0.00000000E+00  0.00000000E+00
  0.00000000E+00  0.00000000E+00  0.00000000E+00
  0.00000000E+00  0.00000000E+00  0.00000000E+00
  0.00000000E+00  0.00000000E+00  0.00000000E+00
  0.00000000E+00  0.00000000E+00  0.00000000E+00
  0.00000000E+00  0.00000000E+00  0.00000000E+00
  0.00000000E+00  0.00000000E+00  0.00000000E+00
  0.00000000E+00  0.00000000E+00  0.00000000E+00
  0.00000000E+00  0.00000000E+00  0.00000000E+00
  0.00000000E+00  0.00000000E+00  0.00000000E+00
  0.00000000E+00  0.00000000E+00  0.00000000E+00
  0.00000000E+00  0.00000000E+00  0.00000000E+00
