k-points 53
0
Gamma
53    53    1
0    0    0