Graphene-B4C3 Bridge with lattice parame
   1.00000000000000     
     4.1699123192220720    2.4075000000000002    0.0000000000000000
    -4.1699123192220720    2.4075000000000002    0.0000000000000000
     0.0000000000000000    0.0000000000000000   15.0000000000000000
   B    C 
     4    11
Direct
  0.0243270876355964 -0.0162217440192576  0.0990299236014610
  0.3788952729909656 -0.0162390197006091  0.1033293329707624
  0.0245081075750736  0.3383018634963562  0.1037736352105382
  0.6698440666816148  0.6285938044873366  0.1036697007924950
  0.3482454339936220  0.3071744593756927  0.1029312595580619
  0.7005246584047283 -0.0169013216073782  0.1029995094763314
  0.0238124528477080  0.6594265556236887  0.1030184552934287
  0.0657976485327030  0.4334659671752741  0.3357224046098029
  0.2325015305775538  0.2671166535850111  0.3359863203490116
  0.0657517151083436  0.9334883390600791  0.3358027349365293
  0.2325220727780684  0.7670855791830434  0.3358754779022372
  0.5656040271603618  0.4335114243561729  0.3358073394206908
  0.7323735194625977  0.2669654176432236  0.3357535147147756
  0.5656051443907781  0.9334143780822606  0.3357914398180167
  0.7323145951936072  0.7669183099258018  0.3358882846791933
 
  0.00000000E+00  0.00000000E+00  0.00000000E+00
  0.00000000E+00  0.00000000E+00  0.00000000E+00
  0.00000000E+00  0.00000000E+00  0.00000000E+00
  0.00000000E+00  0.00000000E+00  0.00000000E+00
  0.00000000E+00  0.00000000E+00  0.00000000E+00
  0.00000000E+00  0.00000000E+00  0.00000000E+00
  0.00000000E+00  0.00000000E+00  0.00000000E+00
  0.00000000E+00  0.00000000E+00  0.00000000E+00
  0.00000000E+00  0.00000000E+00  0.00000000E+00
  0.00000000E+00  0.00000000E+00  0.00000000E+00
  0.00000000E+00  0.00000000E+00  0.00000000E+00
  0.00000000E+00  0.00000000E+00  0.00000000E+00
  0.00000000E+00  0.00000000E+00  0.00000000E+00
  0.00000000E+00  0.00000000E+00  0.00000000E+00
  0.00000000E+00  0.00000000E+00  0.00000000E+00
