Graphene-Borophene Hollow 2 with lattice
   1.00000000000000     
     4.2695052406572822    2.4649999999999999    0.0000000000000000
    -4.2695052406572822    2.4649999999999999    0.0000000000000000
     0.0000000000000000    0.0000000000000000   15.0000000000000000
   B    C 
     8     8
Direct
  0.6690083854706490 -0.0002019635792479  0.1662913187510470
  0.3307886509501057 -0.0002019635792479  0.1662913187510470
  0.0002019635792479  0.3309906145293535  0.1662913187510470
  0.0002019635792479  0.6692103490498964  0.1662913187510470
  0.3307886509501057  0.3309906145293535  0.1662913187510470
  0.6690083854706490  0.6692103490498964  0.1662913187510470
  0.6666659999999993  0.3333330000000032  0.1798083161267572
  0.3333330000000032  0.6666659999999993  0.1511938968232287
  0.3333258269087161  0.1666629134543652  0.4045396546123190
  0.5000047342303874  0.0000094684607748  0.4045331935346498
  0.3333326666666636  0.6666663333333389  0.4043916764875252
  0.5000047342303874  0.4999942657696152  0.4045331935346498
  0.8333360865456378  0.1666629134543652  0.4045396546123190
  0.9999996666666675  0.9999993333333350  0.4044396536152924
  0.8333360865456378  0.6666731730912863  0.4045396546123190
 -0.0000104684607724  0.4999942657696152  0.4045331935346498
 
  0.00000000E+00  0.00000000E+00  0.00000000E+00
  0.00000000E+00  0.00000000E+00  0.00000000E+00
  0.00000000E+00  0.00000000E+00  0.00000000E+00
  0.00000000E+00  0.00000000E+00  0.00000000E+00
  0.00000000E+00  0.00000000E+00  0.00000000E+00
  0.00000000E+00  0.00000000E+00  0.00000000E+00
  0.00000000E+00  0.00000000E+00  0.00000000E+00
  0.00000000E+00  0.00000000E+00  0.00000000E+00
  0.00000000E+00  0.00000000E+00  0.00000000E+00
  0.00000000E+00  0.00000000E+00  0.00000000E+00
  0.00000000E+00  0.00000000E+00  0.00000000E+00
  0.00000000E+00  0.00000000E+00  0.00000000E+00
  0.00000000E+00  0.00000000E+00  0.00000000E+00
  0.00000000E+00  0.00000000E+00  0.00000000E+00
  0.00000000E+00  0.00000000E+00  0.00000000E+00
  0.00000000E+00  0.00000000E+00  0.00000000E+00
