Graphene-B4C3 Bridge with lattice parame
   1.00000000000000     
     4.2140796148150779    2.4329999999999998    0.0000000000000000
    -4.2140796148150779    2.4329999999999998    0.0000000000000000
     0.0000000000000000    0.0000000000000000   15.0000000000000000
   B    C 
     4    11
Direct
  0.0434617253935268 -0.0344199085803819  0.1028225967028889
  0.3986224502944513 -0.0340169025818935  0.1018581755947896
  0.0431381620861726  0.3204353571400174  0.1019422625800595
  0.6885721309002854  0.6105421706120724  0.1019194965525956
  0.3669985655132718  0.2889286997947324  0.1018758658144899
  0.7202258366385598 -0.0340228649711210  0.1020327127898794
  0.0430404661861980  0.6419992932462658  0.1019192817935914
  0.0490120948176896  0.4491737188162744  0.3363850518735788
  0.2156609533634395  0.2825225139785059  0.3363967286869608
  0.0489931820279702  0.9491855951029738  0.3363326350967087
  0.2157272253027593  0.7825048236006733  0.3364106516728426
  0.5489904932295606  0.4492099869636453  0.3363905134740632
  0.7156498387250571  0.2824853002639609  0.3362942985388617
  0.5489316268445755  0.9491335916572582  0.3364095794874062
  0.7156025820098030  0.7824392916237136  0.3363894826746199
 
  0.00000000E+00  0.00000000E+00  0.00000000E+00
  0.00000000E+00  0.00000000E+00  0.00000000E+00
  0.00000000E+00  0.00000000E+00  0.00000000E+00
  0.00000000E+00  0.00000000E+00  0.00000000E+00
  0.00000000E+00  0.00000000E+00  0.00000000E+00
  0.00000000E+00  0.00000000E+00  0.00000000E+00
  0.00000000E+00  0.00000000E+00  0.00000000E+00
  0.00000000E+00  0.00000000E+00  0.00000000E+00
  0.00000000E+00  0.00000000E+00  0.00000000E+00
  0.00000000E+00  0.00000000E+00  0.00000000E+00
  0.00000000E+00  0.00000000E+00  0.00000000E+00
  0.00000000E+00  0.00000000E+00  0.00000000E+00
  0.00000000E+00  0.00000000E+00  0.00000000E+00
  0.00000000E+00  0.00000000E+00  0.00000000E+00
  0.00000000E+00  0.00000000E+00  0.00000000E+00
