Graphene-BC3 Bridge with lattice paramet
   1.00000000000000     
     4.3708302129000609    2.5234999999999999    0.0000000000000000
    -4.3708302129000609    2.5234999999999999    0.0000000000000000
     0.0000000000000000    0.0000000000000000   15.0000000000000000
   B    C 
     2    14
Direct
  0.3383225783997862  0.6691750965519075  0.1002099157719322
  0.6716695729289590  0.3358291671580837  0.1001263106573719
  0.1645844803131140  0.3217706414840970  0.0999194857467653
  0.3241328097808298  0.1621236173694923  0.0999465280888372
  0.1645251676572240  0.8429775564858116  0.0999502664642161
  0.8453650804177610  0.1621343143923084  0.0999155977305928
  0.6857282745310747  0.8429102725230666  0.0999201829612974
  0.8453865140461200  0.6833757563467007  0.0999473669012862
  0.2499928440034001  0.2498537518613109  0.3264429939166317
  0.4165965338411432  0.0832858416540857  0.3264010127943294
  0.2499799448576690  0.7500202083819545  0.3262498866301943
  0.4167263329322728  0.5832694798064021  0.3262008949048800
  0.7500402691104781  0.2499543116353146  0.3261910761972072
  0.9167551816175930  0.0832395604711554  0.3264072204149814
  0.7501431130915409  0.7500058561750537  0.3264440936805944
  0.9167099691377393  0.5833999010365791  0.3263938338055396
 
  0.00000000E+00  0.00000000E+00  0.00000000E+00
  0.00000000E+00  0.00000000E+00  0.00000000E+00
  0.00000000E+00  0.00000000E+00  0.00000000E+00
  0.00000000E+00  0.00000000E+00  0.00000000E+00
  0.00000000E+00  0.00000000E+00  0.00000000E+00
  0.00000000E+00  0.00000000E+00  0.00000000E+00
  0.00000000E+00  0.00000000E+00  0.00000000E+00
  0.00000000E+00  0.00000000E+00  0.00000000E+00
  0.00000000E+00  0.00000000E+00  0.00000000E+00
  0.00000000E+00  0.00000000E+00  0.00000000E+00
  0.00000000E+00  0.00000000E+00  0.00000000E+00
  0.00000000E+00  0.00000000E+00  0.00000000E+00
  0.00000000E+00  0.00000000E+00  0.00000000E+00
  0.00000000E+00  0.00000000E+00  0.00000000E+00
  0.00000000E+00  0.00000000E+00  0.00000000E+00
  0.00000000E+00  0.00000000E+00  0.00000000E+00
