Graphene-BC3 Top with lattice parameter 
   1.00000000000000     
     4.3630359842660011    2.5189999999999997    0.0000000000000000
    -4.3630359842660011    2.5189999999999997    0.0000000000000000
     0.0000000000000000    0.0000000000000000   15.0000000000000000
   B    C 
     2    14
Direct
  0.3383346515259456  0.6691678138262478  0.1002373202763744
  0.6716674020741439  0.3358339218268812  0.1002373110029430
  0.1646629120645270  0.3218195976704799  0.0999122258139490
  0.3243225921602271  0.1621610364286784  0.0999112862357497
  0.1646641714375884  0.8428439491978321  0.0999122252146931
  0.8453463524456607  0.1621601584511873  0.0999136840329041
  0.6856877088779912  0.8428429760275179  0.0999142458729885
  0.8453480657643597  0.6831851140012704  0.0999136776767919
  0.1665663093637118  0.3331393450041462  0.3288812521823449
  0.3331369506990939  0.1665682197667430  0.3288823648567608
  0.1665663182945205  0.8334266608624608  0.3288812515737112
  0.3333269511650357  0.6666632243715217  0.3285839387352633
  0.6666602781211655  0.3333299904983500  0.3285839371572177
  0.8334243427468138  0.1665687734801857  0.3288788550938403
  0.6668526610692189  0.8334261816267301  0.3288775698235640
  0.8334243321900158  0.6668550369597765  0.3288788544509241
 
  0.00000000E+00  0.00000000E+00  0.00000000E+00
  0.00000000E+00  0.00000000E+00  0.00000000E+00
  0.00000000E+00  0.00000000E+00  0.00000000E+00
  0.00000000E+00  0.00000000E+00  0.00000000E+00
  0.00000000E+00  0.00000000E+00  0.00000000E+00
  0.00000000E+00  0.00000000E+00  0.00000000E+00
  0.00000000E+00  0.00000000E+00  0.00000000E+00
  0.00000000E+00  0.00000000E+00  0.00000000E+00
  0.00000000E+00  0.00000000E+00  0.00000000E+00
  0.00000000E+00  0.00000000E+00  0.00000000E+00
  0.00000000E+00  0.00000000E+00  0.00000000E+00
  0.00000000E+00  0.00000000E+00  0.00000000E+00
  0.00000000E+00  0.00000000E+00  0.00000000E+00
  0.00000000E+00  0.00000000E+00  0.00000000E+00
  0.00000000E+00  0.00000000E+00  0.00000000E+00
  0.00000000E+00  0.00000000E+00  0.00000000E+00
