Graphene-Borophene Top with lattice para
   1.00000000000000     
     4.3188686886729952    2.4935000000000000    0.0000000000000000
    -4.3188686886729952    2.4935000000000000    0.0000000000000000
     0.0000000000000000    0.0000000000000000   15.0000000000000000
   B    C 
     8     8
Direct
  0.6684510820618075  0.0000578347748396  0.1674551380394988
  0.3316057527130346  0.0000578347748396  0.1674551380394988
 -0.0000578347748396  0.3315479179381950  0.1674551380394988
 -0.0000578347748396  0.6683932472869678  0.1674551380394988
  0.3316057527130346  0.3315479179381950  0.1674551380394988
  0.6684510820618075  0.6683932472869678  0.1674551380394988
  0.6666659999999993  0.3333330000000032  0.1545684583488146
  0.3333330000000032  0.6666659999999993  0.1800378180765473
  0.1666544336915955  0.3333098673831955  0.4003846758465032
  0.3333290339217026  0.1666640169608490  0.4002342767050446
  0.1666544336915955  0.8333445663084074  0.4003846758465032
  0.3333330000000032  0.6666659999999993  0.4005170253686623
  0.6666659999999993  0.3333330000000032  0.4001556789810311
  0.8333349830391533  0.1666640169608490  0.4002342767050446
  0.6666891326168074  0.8333445663084074  0.4003846758465032
  0.8333349830391533  0.6666699660782995  0.4002342767050446
 
  0.00000000E+00  0.00000000E+00  0.00000000E+00
  0.00000000E+00  0.00000000E+00  0.00000000E+00
  0.00000000E+00  0.00000000E+00  0.00000000E+00
  0.00000000E+00  0.00000000E+00  0.00000000E+00
  0.00000000E+00  0.00000000E+00  0.00000000E+00
  0.00000000E+00  0.00000000E+00  0.00000000E+00
  0.00000000E+00  0.00000000E+00  0.00000000E+00
  0.00000000E+00  0.00000000E+00  0.00000000E+00
  0.00000000E+00  0.00000000E+00  0.00000000E+00
  0.00000000E+00  0.00000000E+00  0.00000000E+00
  0.00000000E+00  0.00000000E+00  0.00000000E+00
  0.00000000E+00  0.00000000E+00  0.00000000E+00
  0.00000000E+00  0.00000000E+00  0.00000000E+00
  0.00000000E+00  0.00000000E+00  0.00000000E+00
  0.00000000E+00  0.00000000E+00  0.00000000E+00
  0.00000000E+00  0.00000000E+00  0.00000000E+00
