Graphene-B4C3 Hollow 1 with lattice para
   1.00000000000000     
     4.1655821922031482    2.4049999999999994    0.0000000000000000
    -4.1655821922031482    2.4049999999999994    0.0000000000000000
     0.0000000000000000    0.0000000000000000   15.0000000000000000
   B    C 
     4    11
Direct
  0.0282697737090919 -0.0189817787070732  0.0950033490834119
  0.3829508079171249 -0.0189166900251854  0.1050773593795850
  0.0282732480061420  0.3356628962645701  0.1050120096739423
  0.6737374664150599  0.6262280065363413  0.1050442521292424
  0.3520185879378744  0.3045059214292981  0.1036188809734414
  0.7047689359473426 -0.0190618673069872  0.1036591871520931
  0.0282248523578740  0.6572701303270347  0.1036658265274665
  0.0900083844641867  0.4079955305854177  0.3363175248081077
  0.2566658877536935  0.2413185117038253  0.3364415052734152
  0.0900107313180022  0.9080153647079590  0.3363252902582051
  0.2567149070403711  0.7413060879922403  0.3362616137827142
  0.5899806812940420  0.4079859871811389  0.3362821598770024
  0.7566224338407792  0.2412533760288981  0.3362898184351867
  0.5899713294091049  0.9080175121363546  0.3364875702985687
  0.7566315281448598  0.7412794555906350  0.3362929856809387
 
  0.00000000E+00  0.00000000E+00  0.00000000E+00
  0.00000000E+00  0.00000000E+00  0.00000000E+00
  0.00000000E+00  0.00000000E+00  0.00000000E+00
  0.00000000E+00  0.00000000E+00  0.00000000E+00
  0.00000000E+00  0.00000000E+00  0.00000000E+00
  0.00000000E+00  0.00000000E+00  0.00000000E+00
  0.00000000E+00  0.00000000E+00  0.00000000E+00
  0.00000000E+00  0.00000000E+00  0.00000000E+00
  0.00000000E+00  0.00000000E+00  0.00000000E+00
  0.00000000E+00  0.00000000E+00  0.00000000E+00
  0.00000000E+00  0.00000000E+00  0.00000000E+00
  0.00000000E+00  0.00000000E+00  0.00000000E+00
  0.00000000E+00  0.00000000E+00  0.00000000E+00
  0.00000000E+00  0.00000000E+00  0.00000000E+00
  0.00000000E+00  0.00000000E+00  0.00000000E+00
