Graphene-BC3 Top with lattice parameter 
   1.00000000000000     
     4.3569738064395107    2.5154999999999998    0.0000000000000000
    -4.3569738064395107    2.5154999999999998    0.0000000000000000
     0.0000000000000000    0.0000000000000000   15.0000000000000000
   B    C 
     2    14
Direct
  0.3383346293487539  0.6691678481818176  0.1002394270200491
  0.6716673163355017  0.3358339488840704  0.1002394191970740
  0.1647066027699064  0.3219075467612181  0.0999144836238383
  0.3244105263262997  0.1622048353054510  0.0999135243390778
  0.1647078505022744  0.8427997967921372  0.0999144821285386
  0.8453024254220437  0.1622041912130412  0.0999159840184417
  0.6855993484895865  0.8427988914737438  0.0999165647758150
  0.8453041955056789  0.6830970205919372  0.0999159767572721
  0.1665678030377236  0.3331421763637707  0.3288789443166626
  0.3331398525471404  0.1665696682114096  0.3288800553354110
  0.1665678128420613  0.8334253308015076  0.3288789437825083
  0.3333270768961757  0.6666632862170735  0.3285819208289222
  0.6666603954964513  0.3333300525963442  0.3285819184696930
  0.8334230747665785  0.1665702007154385  0.3288765471310413
  0.6668500247588228  0.8334248679567081  0.3288752618745560
  0.8334230649550198  0.6668523379343411  0.3288765464011194
 
  0.00000000E+00  0.00000000E+00  0.00000000E+00
  0.00000000E+00  0.00000000E+00  0.00000000E+00
  0.00000000E+00  0.00000000E+00  0.00000000E+00
  0.00000000E+00  0.00000000E+00  0.00000000E+00
  0.00000000E+00  0.00000000E+00  0.00000000E+00
  0.00000000E+00  0.00000000E+00  0.00000000E+00
  0.00000000E+00  0.00000000E+00  0.00000000E+00
  0.00000000E+00  0.00000000E+00  0.00000000E+00
  0.00000000E+00  0.00000000E+00  0.00000000E+00
  0.00000000E+00  0.00000000E+00  0.00000000E+00
  0.00000000E+00  0.00000000E+00  0.00000000E+00
  0.00000000E+00  0.00000000E+00  0.00000000E+00
  0.00000000E+00  0.00000000E+00  0.00000000E+00
  0.00000000E+00  0.00000000E+00  0.00000000E+00
  0.00000000E+00  0.00000000E+00  0.00000000E+00
  0.00000000E+00  0.00000000E+00  0.00000000E+00
