Graphene-B4C3 Hollow 1 with lattice para
   1.00000000000000     
     4.2002232083545259    2.4249999999999994    0.0000000000000000
    -4.2002232083545259    2.4249999999999994    0.0000000000000000
     0.0000000000000000    0.0000000000000000   15.0000000000000000
   B    C 
     4    11
Direct
  0.0044955711474282  0.0025585227712353  0.1046808677619911
  0.3592336767213415  0.0023734000198784  0.1006538917967841
  0.0046975645019072  0.3572748417076605  0.1009993855774698
  0.6499858772153050  0.6475915997445244  0.1008881635158603
  0.3284799399958325  0.3262525975769940  0.1014065711405985
  0.6806890543740616  0.0022860571287553  0.1016977283801723
  0.0045710772578263  0.6786119956898637  0.1014420493438059
  0.1107298446887584  0.3891932412125595  0.3374654258997961
  0.2773939915826706  0.2224785536099925  0.3375900185293801
  0.1107554191228762  0.8892398015384846  0.3375563090676029
  0.2774251595820841  0.7225289847134783  0.3374342167003203
  0.6107522021259713  0.3892150266662730  0.3374457057537987
  0.7774382555471802  0.2225177838187578  0.3374624879780901
  0.6107696030210170  0.8892189843870806  0.3375553346875488
  0.7774323186712895  0.7225370538589305  0.3375011772001019
 
  0.00000000E+00  0.00000000E+00  0.00000000E+00
  0.00000000E+00  0.00000000E+00  0.00000000E+00
  0.00000000E+00  0.00000000E+00  0.00000000E+00
  0.00000000E+00  0.00000000E+00  0.00000000E+00
  0.00000000E+00  0.00000000E+00  0.00000000E+00
  0.00000000E+00  0.00000000E+00  0.00000000E+00
  0.00000000E+00  0.00000000E+00  0.00000000E+00
  0.00000000E+00  0.00000000E+00  0.00000000E+00
  0.00000000E+00  0.00000000E+00  0.00000000E+00
  0.00000000E+00  0.00000000E+00  0.00000000E+00
  0.00000000E+00  0.00000000E+00  0.00000000E+00
  0.00000000E+00  0.00000000E+00  0.00000000E+00
  0.00000000E+00  0.00000000E+00  0.00000000E+00
  0.00000000E+00  0.00000000E+00  0.00000000E+00
  0.00000000E+00  0.00000000E+00  0.00000000E+00
