Graphene-B4C3 Hollow 1 with lattice para
   1.00000000000000     
     4.2002232083545259    2.4249999999999994    0.0000000000000000
    -4.2002232083545259    2.4249999999999994    0.0000000000000000
     0.0000000000000000    0.0000000000000000   15.0000000000000000
   B    C 
     4    11
Direct
  0.0658788091695068 -0.0521273387780917  0.1023792973457213
  0.4210445621822222 -0.0518379361135300  0.1029482823477847
  0.0655683662501460  0.3027636794821972  0.1029261721146592
  0.7109768881349602  0.5926845846797129  0.1029273133383197
  0.3895678202791398  0.2712657406826144  0.1027779509770082
  0.7424708064405445 -0.0518374323375093  0.1027850070818462
  0.0655809037449973  0.6241674830380775  0.1027765567719148
  0.0571596180041061  0.4369283912789683  0.3365245689588987
  0.2238076141182891  0.2703118515185543  0.3365800412582751
  0.0571433135776897  0.9369386729051593  0.3364956733057790
  0.2238434152255777  0.7702608497227790  0.3365827146084192
  0.5571437565085859  0.4369634544554922  0.3365388957509152
  0.7238031943693256  0.2702679614367703  0.3364360627539766
  0.5571048509968528  0.9369166854368496  0.3365307718507388
  0.7237556365536054  0.7702117970364243  0.3365700248690643
 
  0.00000000E+00  0.00000000E+00  0.00000000E+00
  0.00000000E+00  0.00000000E+00  0.00000000E+00
  0.00000000E+00  0.00000000E+00  0.00000000E+00
  0.00000000E+00  0.00000000E+00  0.00000000E+00
  0.00000000E+00  0.00000000E+00  0.00000000E+00
  0.00000000E+00  0.00000000E+00  0.00000000E+00
  0.00000000E+00  0.00000000E+00  0.00000000E+00
  0.00000000E+00  0.00000000E+00  0.00000000E+00
  0.00000000E+00  0.00000000E+00  0.00000000E+00
  0.00000000E+00  0.00000000E+00  0.00000000E+00
  0.00000000E+00  0.00000000E+00  0.00000000E+00
  0.00000000E+00  0.00000000E+00  0.00000000E+00
  0.00000000E+00  0.00000000E+00  0.00000000E+00
  0.00000000E+00  0.00000000E+00  0.00000000E+00
  0.00000000E+00  0.00000000E+00  0.00000000E+00
