Graphene-B4C3 Hollow 1 with lattice para
   1.00000000000000     
     4.2002232083545259    2.4249999999999994    0.0000000000000000
    -4.2002232083545259    2.4249999999999994    0.0000000000000000
     0.0000000000000000    0.0000000000000000   15.0000000000000000
   B    C 
     4    11
Direct
  0.0041606865313896  0.0026838804380646  0.1196764721435495
  0.3563178380792370  0.0028232367967401  0.0976616167917283
  0.0042137097069508  0.3549880765343886  0.0976921192833149
  0.6520023212317282  0.6505896990350293  0.0976694030712035
  0.3263615523676925  0.3249124119821484  0.1003092185665327
  0.6821382746131506  0.0027877997162341  0.1003018328228949
  0.0041955564516319  0.6805734214707961  0.1002739911917997
  0.1110741387572051  0.3889406968445891  0.3372734802681999
  0.2778469771613616  0.2222840040759164  0.3373110507651078
  0.1112052131998307  0.8889552372569614  0.3372792012518697
  0.2778744722862040  0.7222200706719716  0.3372356559161910
  0.6110907721810820  0.3888621616502569  0.3372331553378787
  0.7777568820062185  0.2222452225718908  0.3372782336277644
  0.6110171282298590  0.8888632758980556  0.3373053619745425
  0.7775940327520084  0.7221492495014249  0.3372785403207436
 
  0.00000000E+00  0.00000000E+00  0.00000000E+00
  0.00000000E+00  0.00000000E+00  0.00000000E+00
  0.00000000E+00  0.00000000E+00  0.00000000E+00
  0.00000000E+00  0.00000000E+00  0.00000000E+00
  0.00000000E+00  0.00000000E+00  0.00000000E+00
  0.00000000E+00  0.00000000E+00  0.00000000E+00
  0.00000000E+00  0.00000000E+00  0.00000000E+00
  0.00000000E+00  0.00000000E+00  0.00000000E+00
  0.00000000E+00  0.00000000E+00  0.00000000E+00
  0.00000000E+00  0.00000000E+00  0.00000000E+00
  0.00000000E+00  0.00000000E+00  0.00000000E+00
  0.00000000E+00  0.00000000E+00  0.00000000E+00
  0.00000000E+00  0.00000000E+00  0.00000000E+00
  0.00000000E+00  0.00000000E+00  0.00000000E+00
  0.00000000E+00  0.00000000E+00  0.00000000E+00
