Graphene-Borophene Bridge with lattice p
   1.00000000000000     
     4.3145385616540723    2.4909999999999997    0.0000000000000000
    -4.3145385616540723    2.4909999999999997    0.0000000000000000
     0.0000000000000000    0.0000000000000000   15.0000000000000000
   B    C 
     8     8
Direct
  0.6718297907137833 -0.0031728799456867  0.1673052793801501
  0.3347015263395301 -0.0030676336546344  0.1673755204905853
  0.0031728799456867  0.3281692092862191  0.1673052793801501
  0.0030676336546344  0.6652974736604721  0.1673755204905853
  0.3344839899355139  0.3281749829159064  0.1662793516224804
  0.6718240170840968  0.6655150100644879  0.1662793516224804
  0.6695096080445463  0.3304893919554563  0.1544619052193948
  0.3361689720779910  0.6638300279220121  0.1793782412461757
  0.2468946476611877  0.2530740656611080  0.4021140276287978
  0.4135840718272110  0.0864601111635280  0.4020887563490013
  0.2468882621746460  0.7531107378253573  0.4021434949096986
  0.4135938836198138  0.5864051163801890  0.4022196247368739
  0.7468949645136169  0.2531040354863852  0.4020233026329236
  0.9135815958990766  0.0864174041009259  0.4019808936462759
  0.7469249343388948  0.7531043523388149  0.4021140276287978
  0.9135388888364744  0.5864149281727916  0.4020887563490013
 
  0.00000000E+00  0.00000000E+00  0.00000000E+00
  0.00000000E+00  0.00000000E+00  0.00000000E+00
  0.00000000E+00  0.00000000E+00  0.00000000E+00
  0.00000000E+00  0.00000000E+00  0.00000000E+00
  0.00000000E+00  0.00000000E+00  0.00000000E+00
  0.00000000E+00  0.00000000E+00  0.00000000E+00
  0.00000000E+00  0.00000000E+00  0.00000000E+00
  0.00000000E+00  0.00000000E+00  0.00000000E+00
  0.00000000E+00  0.00000000E+00  0.00000000E+00
  0.00000000E+00  0.00000000E+00  0.00000000E+00
  0.00000000E+00  0.00000000E+00  0.00000000E+00
  0.00000000E+00  0.00000000E+00  0.00000000E+00
  0.00000000E+00  0.00000000E+00  0.00000000E+00
  0.00000000E+00  0.00000000E+00  0.00000000E+00
  0.00000000E+00  0.00000000E+00  0.00000000E+00
  0.00000000E+00  0.00000000E+00  0.00000000E+00
