Graphene-Borophene Top with lattice para
   1.00000000000000     
     4.3076103584237977    2.4870000000000001    0.0000000000000000
    -4.3076103584237977    2.4870000000000001    0.0000000000000000
     0.0000000000000000    0.0000000000000000   15.0000000000000000
   B    C 
     8     8
Direct
  0.6685703940461659  0.0000358252969842  0.1672531055853425
  0.3314644312508211  0.0000358252969842  0.1672531055853425
 -0.0000358252969842  0.3314286059538369  0.1672531055853425
 -0.0000358252969842  0.6685345687491820  0.1672531055853425
  0.3314644312508211  0.3314286059538369  0.1672531055853425
  0.6685703940461659  0.6685345687491820  0.1672531055853425
  0.6666659999999993  0.3333330000000032  0.1539544618910110
  0.3333330000000032  0.6666659999999993  0.1803715710171647
  0.1666507461954404  0.3333024923908853  0.4005478456325595
  0.3333308647370780  0.1666649323685367  0.4004488890542176
  0.1666507461954404  0.8333482538045620  0.4005478456325595
  0.3333330000000032  0.6666659999999993  0.4006010542143304
  0.6666659999999993  0.3333330000000032  0.4004307419717983
  0.8333340676314658  0.1666649323685367  0.4004488890542177
  0.6666965076091169  0.8333482538045620  0.4005478456325595
  0.8333340676314658  0.6666681352629249  0.4004488890542177
 
  0.00000000E+00  0.00000000E+00  0.00000000E+00
  0.00000000E+00  0.00000000E+00  0.00000000E+00
  0.00000000E+00  0.00000000E+00  0.00000000E+00
  0.00000000E+00  0.00000000E+00  0.00000000E+00
  0.00000000E+00  0.00000000E+00  0.00000000E+00
  0.00000000E+00  0.00000000E+00  0.00000000E+00
  0.00000000E+00  0.00000000E+00  0.00000000E+00
  0.00000000E+00  0.00000000E+00  0.00000000E+00
  0.00000000E+00  0.00000000E+00  0.00000000E+00
  0.00000000E+00  0.00000000E+00  0.00000000E+00
  0.00000000E+00  0.00000000E+00  0.00000000E+00
  0.00000000E+00  0.00000000E+00  0.00000000E+00
  0.00000000E+00  0.00000000E+00  0.00000000E+00
  0.00000000E+00  0.00000000E+00  0.00000000E+00
  0.00000000E+00  0.00000000E+00  0.00000000E+00
  0.00000000E+00  0.00000000E+00  0.00000000E+00
