Graphene-Borophene Top with lattice para
   1.00000000000000     
     4.3076103584237977    2.4870000000000001    0.0000000000000000
    -4.3076103584237977    2.4870000000000001    0.0000000000000000
     0.0000000000000000    0.0000000000000000   15.0000000000000000
   B    C 
     8     8
Direct
  0.6685547895333570  0.0000007213771683  0.1671468840427025
  0.3314449318438140  0.0000007213771683  0.1671468840427025
 -0.0000007213771683  0.3314442104666457  0.1671468840427025
 -0.0000007213771683  0.6685540681561892  0.1671468840427025
  0.3314449318438140  0.3314442104666457  0.1671468840427025
  0.6685547895333570  0.6685540681561892  0.1671468840427025
  0.6666659999999993  0.3333330000000032  0.1540495794642757
  0.3333330000000032  0.6666659999999993  0.1802415655548770
  0.1666492548669653  0.3332995097339351  0.4006271800293519
  0.3333012571284544  0.1666501285642249  0.4005496924913027
  0.1666492548669653  0.8333497451330373  0.4006271800293519
  0.3333330000000032  0.6666659999999993  0.4006416300694496
  0.6666659999999993  0.3333330000000032  0.4005219697599101
  0.8333488714357775  0.1666501285642249  0.4005496924913028
  0.6666994902660673  0.8333497451330373  0.4006271800293519
  0.8333488714357775  0.6666977428715484  0.4005496924913028
 
  0.00000000E+00  0.00000000E+00  0.00000000E+00
  0.00000000E+00  0.00000000E+00  0.00000000E+00
  0.00000000E+00  0.00000000E+00  0.00000000E+00
  0.00000000E+00  0.00000000E+00  0.00000000E+00
  0.00000000E+00  0.00000000E+00  0.00000000E+00
  0.00000000E+00  0.00000000E+00  0.00000000E+00
  0.00000000E+00  0.00000000E+00  0.00000000E+00
  0.00000000E+00  0.00000000E+00  0.00000000E+00
  0.00000000E+00  0.00000000E+00  0.00000000E+00
  0.00000000E+00  0.00000000E+00  0.00000000E+00
  0.00000000E+00  0.00000000E+00  0.00000000E+00
  0.00000000E+00  0.00000000E+00  0.00000000E+00
  0.00000000E+00  0.00000000E+00  0.00000000E+00
  0.00000000E+00  0.00000000E+00  0.00000000E+00
  0.00000000E+00  0.00000000E+00  0.00000000E+00
  0.00000000E+00  0.00000000E+00  0.00000000E+00
