Graphene-Borophene Top with lattice para
   1.00000000000000     
     4.3076103584237977    2.4870000000000001    0.0000000000000000
    -4.3076103584237977    2.4870000000000001    0.0000000000000000
     0.0000000000000000    0.0000000000000000   15.0000000000000000
   B    C 
     8     8
Direct
  0.6695574781326628 -0.0001960284289929  0.1667566623380282
  0.3302454934383466 -0.0001960284289929  0.1667566623380282
  0.0001960284289929  0.3304415218673395  0.1667566623380282
  0.0001960284289929  0.6697535065616560  0.1667566623380282
  0.3302454934383466  0.3304415218673395  0.1667566623380282
  0.6695574781326628  0.6697535065616560  0.1667566623380282
  0.6666659999999993  0.3333330000000032  0.1611536604725458
  0.3333330000000032  0.6666659999999993  0.1843254121494514
  0.1695702502394822  0.3391415004789691  0.3994448319959312
  0.3389851683067380  0.1694920841533667  0.3994891425111340
  0.1695702502394822  0.8304287497605203  0.3994448319959312
  0.3333330000000032  0.6666659999999993  0.3994505834097428
  0.6666659999999993  0.3333330000000032  0.3995951130855873
  0.8305069158466358  0.1694920841533667  0.3994891425111340
  0.6608574995210335  0.8304287497605203  0.3994448319959312
  0.8305069158466358  0.6610138316932647  0.3994891425111340
 
  0.00000000E+00  0.00000000E+00  0.00000000E+00
  0.00000000E+00  0.00000000E+00  0.00000000E+00
  0.00000000E+00  0.00000000E+00  0.00000000E+00
  0.00000000E+00  0.00000000E+00  0.00000000E+00
  0.00000000E+00  0.00000000E+00  0.00000000E+00
  0.00000000E+00  0.00000000E+00  0.00000000E+00
  0.00000000E+00  0.00000000E+00  0.00000000E+00
  0.00000000E+00  0.00000000E+00  0.00000000E+00
  0.00000000E+00  0.00000000E+00  0.00000000E+00
  0.00000000E+00  0.00000000E+00  0.00000000E+00
  0.00000000E+00  0.00000000E+00  0.00000000E+00
  0.00000000E+00  0.00000000E+00  0.00000000E+00
  0.00000000E+00  0.00000000E+00  0.00000000E+00
  0.00000000E+00  0.00000000E+00  0.00000000E+00
  0.00000000E+00  0.00000000E+00  0.00000000E+00
  0.00000000E+00  0.00000000E+00  0.00000000E+00
