Graphene-B4C3 Bridge with lattice parame
   1.00000000000000     
     4.2080174369885874    2.4295000000000000    0.0000000000000000
    -4.2080174369885874    2.4295000000000000    0.0000000000000000
     0.0000000000000000    0.0000000000000000   15.0000000000000000
   B    C 
     4    11
Direct
  0.0295520272818266 -0.0213823649717373  0.1029891964157575
  0.3846914967610238 -0.0211506855763339  0.1019028191500993
  0.0293434069665616  0.3335648374796317  0.1019932198529077
  0.6747322340638668  0.6235220489399522  0.1019712883606014
  0.3532581277728654  0.3020042275197326  0.1019958848309755
  0.7062444447519655 -0.0211140421996520  0.1019492671029485
  0.0294109469327124  0.6550741329887672  0.1020179537277874
  0.0611109991409896  0.4377793121556670  0.3362923132881090
  0.2277658955463216  0.2711435499809497  0.3363839689435664
  0.0611058759213782  0.9378014019507026  0.3362862268757115
  0.2278185276078528  0.7711254865488050  0.3363511499752169
  0.5610869517609477  0.4377914767695137  0.3363209377121228
  0.7277469663101687  0.2711033104959524  0.3362480517759144
  0.5610489152951788  0.9377653741209063  0.3363503116887868
  0.7277105172196618  0.7710726004638404  0.3363267436328306
 
  0.00000000E+00  0.00000000E+00  0.00000000E+00
  0.00000000E+00  0.00000000E+00  0.00000000E+00
  0.00000000E+00  0.00000000E+00  0.00000000E+00
  0.00000000E+00  0.00000000E+00  0.00000000E+00
  0.00000000E+00  0.00000000E+00  0.00000000E+00
  0.00000000E+00  0.00000000E+00  0.00000000E+00
  0.00000000E+00  0.00000000E+00  0.00000000E+00
  0.00000000E+00  0.00000000E+00  0.00000000E+00
  0.00000000E+00  0.00000000E+00  0.00000000E+00
  0.00000000E+00  0.00000000E+00  0.00000000E+00
  0.00000000E+00  0.00000000E+00  0.00000000E+00
  0.00000000E+00  0.00000000E+00  0.00000000E+00
  0.00000000E+00  0.00000000E+00  0.00000000E+00
  0.00000000E+00  0.00000000E+00  0.00000000E+00
  0.00000000E+00  0.00000000E+00  0.00000000E+00
