Graphene-Borophene Hollow 1 with lattice
   1.00000000000000     
     4.3257968919032708    2.4975000000000001    0.0000000000000000
    -4.3257968919032708    2.4975000000000001    0.0000000000000000
     0.0000000000000000    0.0000000000000000   15.0000000000000000
   B    C 
     8     8
Direct
  0.6734126250695840 -0.0042452059830093  0.1667636440694281
  0.3349070574007917 -0.0041438992996523  0.1663450575813097
  0.0042452059830093  0.3265863749304186  0.1667636440694281
  0.0041438992996523  0.6650919425992110  0.1663450575813096
  0.3348163582981142  0.3265394029410406  0.1663124478850844
  0.6734595970589613  0.6651826417018877  0.1663124478850844
  0.6706511594127448  0.3293478405872577  0.1607506816394440
  0.3373317259192599  0.6626672740807429  0.1726857961546689
  0.2736800678967635  0.2263453880467169  0.4030324355715175
  0.4403169432863646  0.0596766984749908  0.4030847309540584
  0.2736524733489294  0.7263465266510735  0.4030989360429045
  0.4403281408963720  0.5596708591036310  0.4031347043531013
  0.7736401683054226  0.2263588316945797  0.4030663741626986
  0.9403205532346640  0.0596784467653386  0.4029868755243966
  0.7736536119532855  0.7263189321032387  0.4030324355715176
  0.9403223015250119  0.5596820567136376  0.4030847309540584
 
  0.00000000E+00  0.00000000E+00  0.00000000E+00
  0.00000000E+00  0.00000000E+00  0.00000000E+00
  0.00000000E+00  0.00000000E+00  0.00000000E+00
  0.00000000E+00  0.00000000E+00  0.00000000E+00
  0.00000000E+00  0.00000000E+00  0.00000000E+00
  0.00000000E+00  0.00000000E+00  0.00000000E+00
  0.00000000E+00  0.00000000E+00  0.00000000E+00
  0.00000000E+00  0.00000000E+00  0.00000000E+00
  0.00000000E+00  0.00000000E+00  0.00000000E+00
  0.00000000E+00  0.00000000E+00  0.00000000E+00
  0.00000000E+00  0.00000000E+00  0.00000000E+00
  0.00000000E+00  0.00000000E+00  0.00000000E+00
  0.00000000E+00  0.00000000E+00  0.00000000E+00
  0.00000000E+00  0.00000000E+00  0.00000000E+00
  0.00000000E+00  0.00000000E+00  0.00000000E+00
  0.00000000E+00  0.00000000E+00  0.00000000E+00
