Graphene-B4C3 Hollow 2 with lattice para
   1.00000000000000     
     4.1863668018939757    2.4169999999999998    0.0000000000000000
    -4.1863668018939757    2.4169999999999998    0.0000000000000000
     0.0000000000000000    0.0000000000000000   15.0000000000000000
   B    C 
     4    11
Direct
  0.0043664945537282  0.0029019393933714  0.0995203395258357
  0.3595159752268029  0.0029061838010336  0.1012648461805469
  0.0043742534410460  0.3580489691399499  0.1012670564830554
  0.6492199625280523  0.6477515310710829  0.1012709582907946
  0.3281479567757383  0.3266795362830363  0.1010031336145809
  0.6805937926127646  0.0029064244335811  0.1009967851588087
  0.0043741287950698  0.6791236461706454  0.1009958895305854
  0.1664829221263002  0.3332215973393345  0.3381424377168228
  0.3331701027293476  0.1665356961195565  0.3381442030621736
  0.1665209797597670  0.8332406585201172  0.3381463114539453
  0.3331732816472607  0.6665584075868283  0.3380327872551228
  0.6665068337538761  0.3332235424534444  0.3380328159895359
  0.8331884462317448  0.1665719423858902  0.3381457273598660
  0.6665063353071566  0.8332057987916013  0.3381419258609933
  0.8331525345113530  0.6665581265105377  0.3381407825173603
 
  0.00000000E+00  0.00000000E+00  0.00000000E+00
  0.00000000E+00  0.00000000E+00  0.00000000E+00
  0.00000000E+00  0.00000000E+00  0.00000000E+00
  0.00000000E+00  0.00000000E+00  0.00000000E+00
  0.00000000E+00  0.00000000E+00  0.00000000E+00
  0.00000000E+00  0.00000000E+00  0.00000000E+00
  0.00000000E+00  0.00000000E+00  0.00000000E+00
  0.00000000E+00  0.00000000E+00  0.00000000E+00
  0.00000000E+00  0.00000000E+00  0.00000000E+00
  0.00000000E+00  0.00000000E+00  0.00000000E+00
  0.00000000E+00  0.00000000E+00  0.00000000E+00
  0.00000000E+00  0.00000000E+00  0.00000000E+00
  0.00000000E+00  0.00000000E+00  0.00000000E+00
  0.00000000E+00  0.00000000E+00  0.00000000E+00
  0.00000000E+00  0.00000000E+00  0.00000000E+00
