Graphene-Borophene Hollow 1 with lattice
   1.00000000000000     
     4.3431173999789596    2.5074999999999998    0.0000000000000000
    -4.3431173999789596    2.5074999999999998    0.0000000000000000
     0.0000000000000000    0.0000000000000000   15.0000000000000000
   B    C 
     8     8
Direct
  0.6719623446067918 -0.0028353456564347  0.1660752215932519
  0.3335984429637507 -0.0027388860205822  0.1662819207280684
  0.0028353456564347  0.3280366553932107  0.1660752215932519
  0.0027388860205822  0.6664005570362519  0.1662819207280684
  0.3334730367106188  0.3279396507538945  0.1663032712708654
  0.6720593492461080  0.6665259632893836  0.1663032712708654
  0.6692362733551449  0.3307627266448574  0.1639644641534418
  0.3359716300006713  0.6640273699993314  0.1685596328283976
  0.2750520661598086  0.2249647351840946  0.4033470061436134
  0.4417176568430421  0.0583103590471836  0.4034097745203998
  0.2750394398034229  0.7249595601965798  0.4033813139493314
  0.4417289698449940  0.5582700301550080  0.4034258229236322
  0.7750391375960526  0.2249598624039503  0.4033812608319173
  0.9417064043127831  0.0582925956872199  0.4032531168008923
  0.7750342648159078  0.7249469338401943  0.4033470061436134
  0.9416886409528187  0.5582813431569599  0.4034097745203998
 
  0.00000000E+00  0.00000000E+00  0.00000000E+00
  0.00000000E+00  0.00000000E+00  0.00000000E+00
  0.00000000E+00  0.00000000E+00  0.00000000E+00
  0.00000000E+00  0.00000000E+00  0.00000000E+00
  0.00000000E+00  0.00000000E+00  0.00000000E+00
  0.00000000E+00  0.00000000E+00  0.00000000E+00
  0.00000000E+00  0.00000000E+00  0.00000000E+00
  0.00000000E+00  0.00000000E+00  0.00000000E+00
  0.00000000E+00  0.00000000E+00  0.00000000E+00
  0.00000000E+00  0.00000000E+00  0.00000000E+00
  0.00000000E+00  0.00000000E+00  0.00000000E+00
  0.00000000E+00  0.00000000E+00  0.00000000E+00
  0.00000000E+00  0.00000000E+00  0.00000000E+00
  0.00000000E+00  0.00000000E+00  0.00000000E+00
  0.00000000E+00  0.00000000E+00  0.00000000E+00
  0.00000000E+00  0.00000000E+00  0.00000000E+00
