Graphene-B4C3 Top with lattice parameter
   1.00000000000000     
     4.1935731907678084    2.4228782919273213    0.0072707265518795
    -4.1935929510592418    2.4229034107935745   -0.0000417606520662
     0.0108532597231684    0.0230892864030231    8.3889401256706986
   B    C 
     4    11
Direct
  0.0028303699989411  0.0016343460144498  0.0045492481470816
  0.3582891531806632  0.0027471569050740 -0.0052756671768825
  0.0025241734299992  0.3568754543697064 -0.0051739552956948
  0.6484846776830792  0.6471360003273435 -0.0054463051013893
  0.3272172412487157  0.3253739793437380 -0.0035978664285301
  0.6796418266027016  0.0029259119223327 -0.0045906993734887
  0.0016757058426185  0.6777171867716358 -0.0047060171222688
  0.0007544210199116  0.5003493176914553  0.4190261695583997
  0.1678146198339437  0.3340764478762663  0.4189197870122047
  0.0009648384596515  0.0005462548855801  0.4182220003203284
  0.1679326088376581  0.8341188577432531  0.4188455416436606
  0.5010985856884222  0.5004617050450145  0.4190506916736486
  0.6678726824521881  0.3340872236010731  0.4193000746108993
  0.5010074747389378  0.0007024592450602  0.4189823294062145
  0.6678522876492614  0.8340150315913407  0.4188740014591659
 
  0.00000000E+00  0.00000000E+00  0.00000000E+00
  0.00000000E+00  0.00000000E+00  0.00000000E+00
  0.00000000E+00  0.00000000E+00  0.00000000E+00
  0.00000000E+00  0.00000000E+00  0.00000000E+00
  0.00000000E+00  0.00000000E+00  0.00000000E+00
  0.00000000E+00  0.00000000E+00  0.00000000E+00
  0.00000000E+00  0.00000000E+00  0.00000000E+00
  0.00000000E+00  0.00000000E+00  0.00000000E+00
  0.00000000E+00  0.00000000E+00  0.00000000E+00
  0.00000000E+00  0.00000000E+00  0.00000000E+00
  0.00000000E+00  0.00000000E+00  0.00000000E+00
  0.00000000E+00  0.00000000E+00  0.00000000E+00
  0.00000000E+00  0.00000000E+00  0.00000000E+00
  0.00000000E+00  0.00000000E+00  0.00000000E+00
  0.00000000E+00  0.00000000E+00  0.00000000E+00
