Graphene-Borophene Hollow 1 with lattice
   1.00000000000000     
     4.3154045870578575    2.4914999999999998    0.0000000000000000
    -4.3154045870578575    2.4914999999999998    0.0000000000000000
     0.0000000000000000    0.0000000000000000   15.0000000000000000
   B    C 
     8     8
Direct
  0.6722953619904757 -0.0029637764593640  0.1669969718729899
  0.3333736450002327 -0.0028153998386996  0.1667713804263559
  0.0029637764593640  0.3277036380095262  0.1669969718729899
  0.0028153998386996  0.6666253549997698  0.1667713804263559
  0.3332710828682441  0.3275942793786043  0.1668039987457424
  0.6724047206213979  0.6667279171317585  0.1668039987457424
  0.6692590474334180  0.3307399525665846  0.1610820017938112
  0.3360806811746871  0.6639183188253150  0.1730434613098853
  0.2749438876588465  0.2250102819619998  0.4026740074288672
  0.4416486780538807  0.0583621791929894  0.4026823957972004
  0.2749846062699525  0.7250143937300508  0.4026760602253293
  0.4416469204988526  0.5583520795011506  0.4027717837344542
  0.7749193895977757  0.2250796104022262  0.4026880120346387
  0.9416491525780877  0.0583498474219149  0.4026811723595807
  0.7749887180380032  0.7250551123411562  0.4026740074288672
  0.9416368208070134  0.5583503219461220  0.4026823957972004
 
  0.00000000E+00  0.00000000E+00  0.00000000E+00
  0.00000000E+00  0.00000000E+00  0.00000000E+00
  0.00000000E+00  0.00000000E+00  0.00000000E+00
  0.00000000E+00  0.00000000E+00  0.00000000E+00
  0.00000000E+00  0.00000000E+00  0.00000000E+00
  0.00000000E+00  0.00000000E+00  0.00000000E+00
  0.00000000E+00  0.00000000E+00  0.00000000E+00
  0.00000000E+00  0.00000000E+00  0.00000000E+00
  0.00000000E+00  0.00000000E+00  0.00000000E+00
  0.00000000E+00  0.00000000E+00  0.00000000E+00
  0.00000000E+00  0.00000000E+00  0.00000000E+00
  0.00000000E+00  0.00000000E+00  0.00000000E+00
  0.00000000E+00  0.00000000E+00  0.00000000E+00
  0.00000000E+00  0.00000000E+00  0.00000000E+00
  0.00000000E+00  0.00000000E+00  0.00000000E+00
  0.00000000E+00  0.00000000E+00  0.00000000E+00
