Graphene-Borophene Bridge with lattice p
   1.00000000000000     
     4.2435244785437494    2.4500000000000002    0.0000000000000000
    -4.2435244785437494    2.4500000000000002    0.0000000000000000
     0.0000000000000000    0.0000000000000000   15.0000000000000000
   B    C 
     8     8
Direct
  0.6700650568739015 -0.0007710442810850  0.1642869628130703
  0.3320059836517044 -0.0008365030999235  0.1653105298975262
  0.0007710442810850  0.3299339431261010  0.1642869628130703
  0.0008365030999235  0.6679930163482980  0.1653105298975262
  0.3316695314999218  0.3298078670250824  0.1678643383957321
  0.6701911329749204  0.6683294685000809  0.1678643383957321
  0.6673824469126240  0.3326165530873786  0.1823083382170289
  0.3341411290349015  0.6658578709651013  0.1498440485590356
  0.2490808245159624  0.2509428057823596  0.4032848878270925
  0.4158194145468187  0.0842819445995681  0.4031520583211914
  0.2490873326469839  0.7509116673530183  0.4029162881455787
  0.4158304885554810  0.5841685114445220  0.4030506808135808
  0.7492067300958368  0.2507922699041659  0.4032015791460216
  0.9157987983585619  0.0842002016414402  0.4034148439429003
  0.7490561942176424  0.7509181754840404  0.4032848878270925
  0.9157170554004346  0.5841795854531838  0.4031520583211914
 
  0.00000000E+00  0.00000000E+00  0.00000000E+00
  0.00000000E+00  0.00000000E+00  0.00000000E+00
  0.00000000E+00  0.00000000E+00  0.00000000E+00
  0.00000000E+00  0.00000000E+00  0.00000000E+00
  0.00000000E+00  0.00000000E+00  0.00000000E+00
  0.00000000E+00  0.00000000E+00  0.00000000E+00
  0.00000000E+00  0.00000000E+00  0.00000000E+00
  0.00000000E+00  0.00000000E+00  0.00000000E+00
  0.00000000E+00  0.00000000E+00  0.00000000E+00
  0.00000000E+00  0.00000000E+00  0.00000000E+00
  0.00000000E+00  0.00000000E+00  0.00000000E+00
  0.00000000E+00  0.00000000E+00  0.00000000E+00
  0.00000000E+00  0.00000000E+00  0.00000000E+00
  0.00000000E+00  0.00000000E+00  0.00000000E+00
  0.00000000E+00  0.00000000E+00  0.00000000E+00
  0.00000000E+00  0.00000000E+00  0.00000000E+00
