Graphene-BC3 Bridge with lattice paramet
   1.00000000000000     
     4.3690981620924925    2.5225000000000000    0.0000000000000000
    -4.3690981620924925    2.5225000000000000    0.0000000000000000
     0.0000000000000000    0.0000000000000000   15.0000000000000000
   B    C 
     2    14
Direct
  0.3057752578207995  0.7037567786180889  0.1007581159764796
  0.6390896943871512  0.3704406065501920  0.1004872152952596
  0.1320641984222692  0.3563409445784418  0.1004670162038112
  0.2916002080429675  0.1966760023643532  0.1004573213198861
  0.1320510800453618  0.8774800779039985  0.1004480601255034
  0.8128427115934139  0.1966802706605800  0.1004770364504848
  0.6531952820128689  0.8774618475724304  0.1004537392839275
  0.8128617917788786  0.7179417510790075  0.1004434159825809
  0.2825789690773993  0.2153915729896415  0.3258910701930243
  0.4492411124006539  0.0488105748207667  0.3258699934747223
  0.2825569702021598  0.7154076739926194  0.3255851627668842
  0.4492712868357425  0.5486883951186355  0.3258548555997713
  0.7825621822358607  0.2154063294827284  0.3258506887587347
  0.9492349323115622  0.0487322393247816  0.3258691795293982
  0.7825774968805391  0.7153890725793870  0.3258860347895757
  0.9491554926190767  0.5487211956976704  0.3258677609166133
 
  0.00000000E+00  0.00000000E+00  0.00000000E+00
  0.00000000E+00  0.00000000E+00  0.00000000E+00
  0.00000000E+00  0.00000000E+00  0.00000000E+00
  0.00000000E+00  0.00000000E+00  0.00000000E+00
  0.00000000E+00  0.00000000E+00  0.00000000E+00
  0.00000000E+00  0.00000000E+00  0.00000000E+00
  0.00000000E+00  0.00000000E+00  0.00000000E+00
  0.00000000E+00  0.00000000E+00  0.00000000E+00
  0.00000000E+00  0.00000000E+00  0.00000000E+00
  0.00000000E+00  0.00000000E+00  0.00000000E+00
  0.00000000E+00  0.00000000E+00  0.00000000E+00
  0.00000000E+00  0.00000000E+00  0.00000000E+00
  0.00000000E+00  0.00000000E+00  0.00000000E+00
  0.00000000E+00  0.00000000E+00  0.00000000E+00
  0.00000000E+00  0.00000000E+00  0.00000000E+00
  0.00000000E+00  0.00000000E+00  0.00000000E+00
