Graphene-B4C3 Bridge with lattice parame
   1.00000000000000     
     4.1396014300896162    2.3899999999999997    0.0000000000000000
    -4.1396014300896162    2.3899999999999997    0.0000000000000000
     0.0000000000000000    0.0000000000000000   15.0000000000000000
   B    C 
     4    11
Direct
  0.0402256085194815 -0.0313503180862586  0.1121236581302657
  0.3947986719895720 -0.0309818718344774  0.1000946461084920
  0.0399720053637197  0.3229062789621365  0.1001970153400691
  0.6858300430420214  0.6142744708248108  0.1001745466671393
  0.3641771491144289  0.2924827157791234  0.1013941902394186
  0.7165382397476128 -0.0309197100398567  0.1016562093444413
  0.0399232236450674  0.6446460925923410  0.1014107096214404
  0.0518413214246354  0.4464652231304401  0.3360346567166606
  0.2185035122868597  0.2798576157064948  0.3361359882172259
  0.0518181963466217  0.9464626309234458  0.3359862333109712
  0.2185284524657808  0.7797814412624169  0.3360386407154013
  0.5518006703679427  0.4464883242725514  0.3360193111691825
  0.7184663230289953  0.2797923366900131  0.3359265154892585
  0.5517856284757987  0.9464463152855876  0.3361073696100971
  0.7184182875147842  0.7797491211979293  0.3360796426532733
 
  0.00000000E+00  0.00000000E+00  0.00000000E+00
  0.00000000E+00  0.00000000E+00  0.00000000E+00
  0.00000000E+00  0.00000000E+00  0.00000000E+00
  0.00000000E+00  0.00000000E+00  0.00000000E+00
  0.00000000E+00  0.00000000E+00  0.00000000E+00
  0.00000000E+00  0.00000000E+00  0.00000000E+00
  0.00000000E+00  0.00000000E+00  0.00000000E+00
  0.00000000E+00  0.00000000E+00  0.00000000E+00
  0.00000000E+00  0.00000000E+00  0.00000000E+00
  0.00000000E+00  0.00000000E+00  0.00000000E+00
  0.00000000E+00  0.00000000E+00  0.00000000E+00
  0.00000000E+00  0.00000000E+00  0.00000000E+00
  0.00000000E+00  0.00000000E+00  0.00000000E+00
  0.00000000E+00  0.00000000E+00  0.00000000E+00
  0.00000000E+00  0.00000000E+00  0.00000000E+00
