Graphene-BC3 Top with lattice parameter 
   1.00000000000000     
     4.3587058572470800    2.5165000000000002    0.0000000000000000
    -4.3587058572470800    2.5165000000000002    0.0000000000000000
     0.0000000000000000    0.0000000000000000   15.0000000000000000
   B    C 
     2    14
Direct
  0.3383344871153553  0.6691672486824999  0.1002372979480901
  0.6716674647135523  0.3358336190194120  0.1002372878158782
  0.1646942236042484  0.3218831055381834  0.0999141817741225
  0.3243863756855458  0.1621932855874408  0.0999131955354214
  0.1646954336006517  0.8428118632708732  0.0999141797288191
  0.8453145279281343  0.1621906316773709  0.0999157410333473
  0.6856264107539417  0.8428122387915387  0.0999163444664224
  0.8453159823570762  0.6831230686096922  0.0999157347583012
  0.1665673338465760  0.3331415028924136  0.3288798259212424
  0.3331390375514701  0.1665693175272227  0.3288809335368955
  0.1665673359490507  0.8334254328873788  0.3288798256168624
  0.3333268162084379  0.6666632094439041  0.3285822118276084
  0.6666601954148924  0.3333298977821246  0.3285822095269702
  0.8334230365949284  0.1665698618579255  0.3288774374313984
  0.6668503065272354  0.8334249543414315  0.3288761560724988
  0.8334230321489225  0.6668527620905975  0.3288774370061421
 
  0.00000000E+00  0.00000000E+00  0.00000000E+00
  0.00000000E+00  0.00000000E+00  0.00000000E+00
  0.00000000E+00  0.00000000E+00  0.00000000E+00
  0.00000000E+00  0.00000000E+00  0.00000000E+00
  0.00000000E+00  0.00000000E+00  0.00000000E+00
  0.00000000E+00  0.00000000E+00  0.00000000E+00
  0.00000000E+00  0.00000000E+00  0.00000000E+00
  0.00000000E+00  0.00000000E+00  0.00000000E+00
  0.00000000E+00  0.00000000E+00  0.00000000E+00
  0.00000000E+00  0.00000000E+00  0.00000000E+00
  0.00000000E+00  0.00000000E+00  0.00000000E+00
  0.00000000E+00  0.00000000E+00  0.00000000E+00
  0.00000000E+00  0.00000000E+00  0.00000000E+00
  0.00000000E+00  0.00000000E+00  0.00000000E+00
  0.00000000E+00  0.00000000E+00  0.00000000E+00
  0.00000000E+00  0.00000000E+00  0.00000000E+00
