Graphene-B4C3 Hollow 2 with lattice para
   1.00000000000000     
     4.1829027002788370    2.4149999999999991    0.0000000000000000
    -4.1829027002788370    2.4149999999999991    0.0000000000000000
     0.0000000000000000    0.0000000000000000   15.0000000000000000
   B    C 
     4    11
Direct
  0.0043883096242194  0.0029144546575404  0.0993281572688004
  0.3595358510721299  0.0029203066271281  0.1013104898738275
  0.0043974031325196  0.3580609055820145  0.1013125478341973
  0.6492544241862105  0.6477771897364034  0.1013170141417425
  0.3282127959270177  0.3267342736666495  0.1010116939448955
  0.6805874097221501  0.0029237929715073  0.1010168130269730
  0.0044022389954055  0.6791109410049762  0.1010182370875198
  0.1664589896455437  0.3332046032308146  0.3381424640952407
  0.3331452639708285  0.1665187183013860  0.3381442722560591
  0.1664994409404272  0.8332278842329696  0.3381468101016753
  0.3331482918738874  0.6665421639554620  0.3380336562434437
  0.6664822346735986  0.3332068246261063  0.3380336672121620
  0.8331676724602318  0.1665584042712328  0.3381461737134350
  0.6664836974655420  0.8331901908076013  0.3381425859406783
  0.8331299763102953  0.6665433463282199  0.3381414172593767
 
  0.00000000E+00  0.00000000E+00  0.00000000E+00
  0.00000000E+00  0.00000000E+00  0.00000000E+00
  0.00000000E+00  0.00000000E+00  0.00000000E+00
  0.00000000E+00  0.00000000E+00  0.00000000E+00
  0.00000000E+00  0.00000000E+00  0.00000000E+00
  0.00000000E+00  0.00000000E+00  0.00000000E+00
  0.00000000E+00  0.00000000E+00  0.00000000E+00
  0.00000000E+00  0.00000000E+00  0.00000000E+00
  0.00000000E+00  0.00000000E+00  0.00000000E+00
  0.00000000E+00  0.00000000E+00  0.00000000E+00
  0.00000000E+00  0.00000000E+00  0.00000000E+00
  0.00000000E+00  0.00000000E+00  0.00000000E+00
  0.00000000E+00  0.00000000E+00  0.00000000E+00
  0.00000000E+00  0.00000000E+00  0.00000000E+00
  0.00000000E+00  0.00000000E+00  0.00000000E+00
