Graphene-B4C3 Hollow 1 with lattice para
   1.00000000000000     
     4.2054193607772321    2.4279999999999990    0.0000000000000000
    -4.2054193607772321    2.4279999999999990    0.0000000000000000
     0.0000000000000000    0.0000000000000000   15.0000000000000000
   B    C 
     4    11
Direct
  0.0195929990943462 -0.0108723116408776  0.1007466931899075
  0.3748177116584684 -0.0109027353409729  0.1003615033328908
  0.0196326293710950  0.3444139206796613  0.1004208200024722
  0.6644631706840666  0.6336552511372169  0.1004184217730462
  0.3430459160378664  0.3124687188983614  0.1002532400046741
  0.6962032133065426 -0.0111936582077010  0.1008109009560250
  0.0196203949561477  0.6655022587040049  0.1003021203854190
  0.0976082501711642  0.4009263719982062  0.3384449865467564
  0.2642486035739570  0.2342229559055999  0.3386997921659333
  0.0976403917436376  0.9009997979325945  0.3384942741413056
  0.2642988128864740  0.7342911428116653  0.3386011021337063
  0.5975869426231736  0.4009253026464063  0.3384579492395314
  0.7642780346412353  0.2342995674140886  0.3385951985226759
  0.5975684791765006  0.9008810883323255  0.3385540965368442
  0.7642440056308750  0.7342607731738877  0.3386182344021329
 
  0.00000000E+00  0.00000000E+00  0.00000000E+00
  0.00000000E+00  0.00000000E+00  0.00000000E+00
  0.00000000E+00  0.00000000E+00  0.00000000E+00
  0.00000000E+00  0.00000000E+00  0.00000000E+00
  0.00000000E+00  0.00000000E+00  0.00000000E+00
  0.00000000E+00  0.00000000E+00  0.00000000E+00
  0.00000000E+00  0.00000000E+00  0.00000000E+00
  0.00000000E+00  0.00000000E+00  0.00000000E+00
  0.00000000E+00  0.00000000E+00  0.00000000E+00
  0.00000000E+00  0.00000000E+00  0.00000000E+00
  0.00000000E+00  0.00000000E+00  0.00000000E+00
  0.00000000E+00  0.00000000E+00  0.00000000E+00
  0.00000000E+00  0.00000000E+00  0.00000000E+00
  0.00000000E+00  0.00000000E+00  0.00000000E+00
  0.00000000E+00  0.00000000E+00  0.00000000E+00
