Graphene-Borophene Hollow_2 with lattice
   1.00000000000000     
     4.3119404854427197    2.4895000000000000    0.0000000000000000
    -4.3119404854427197    2.4895000000000000    0.0000000000000000
     0.0000000000000000    0.0000000000000000   15.0000000000000000
   B    C 
     8     8
Direct
  0.6696689524032839 -0.0000595239607308  0.0999795760957258
  0.3302705236359879 -0.0000595239607308  0.0999795760957258
  0.0000595239607308  0.3303300475967186  0.0999795760957258
  0.0000595239607308  0.6697284763640147  0.0999795760957258
  0.3302705236359879  0.3303300475967186  0.0999795760957258
  0.6696689524032839  0.6697284763640147  0.0999795760957258
  0.6666659999999993  0.3333330000000032  0.0991346011097829
  0.3333330000000032  0.6666659999999993  0.1009365584820344
  0.3333451656116698  0.1666725828058420  0.3364048784831341
  0.5000060331558757  0.0000120663117512  0.3364694191343060
  0.3333326666666636  0.6666663333333389  0.3363790307341368
  0.5000060331558757  0.4999929668441270  0.3364694191343060
  0.8333264171941605  0.1666725828058420  0.3364048784831341
  0.9999996666666675  0.9999993333333350  0.3362494602473624
  0.8333264171941605  0.6666538343883327  0.3364048784831341
 -0.0000130663117485  0.4999929668441270  0.3364694191343060
 
  0.00000000E+00  0.00000000E+00  0.00000000E+00
  0.00000000E+00  0.00000000E+00  0.00000000E+00
  0.00000000E+00  0.00000000E+00  0.00000000E+00
  0.00000000E+00  0.00000000E+00  0.00000000E+00
  0.00000000E+00  0.00000000E+00  0.00000000E+00
  0.00000000E+00  0.00000000E+00  0.00000000E+00
  0.00000000E+00  0.00000000E+00  0.00000000E+00
  0.00000000E+00  0.00000000E+00  0.00000000E+00
  0.00000000E+00  0.00000000E+00  0.00000000E+00
  0.00000000E+00  0.00000000E+00  0.00000000E+00
  0.00000000E+00  0.00000000E+00  0.00000000E+00
  0.00000000E+00  0.00000000E+00  0.00000000E+00
  0.00000000E+00  0.00000000E+00  0.00000000E+00
  0.00000000E+00  0.00000000E+00  0.00000000E+00
  0.00000000E+00  0.00000000E+00  0.00000000E+00
  0.00000000E+00  0.00000000E+00  0.00000000E+00
