Graphene-Borophene Hollow_2 with lattice parameter 4.979 and distance 3.546
        1.0
        4.3119404854427197    2.4895000000000000    0.0000000000000000
       -4.3119404854427197    2.4895000000000000    0.0000000000000000
        0.0000000000000000    0.0000000000000000   15.0000000000000000
        B   C
        8   8
        Direct
        0.6688868879072842  0.0000000000000000  0.1000000000000014
        0.3311121120927183  0.0000000000000000  0.1000000000000014
        0.0000000000000000  0.3311121120927183  0.1000000000000014
        0.0000000000000000  0.6688868879072842  0.1000000000000014
        0.3311121120927183  0.3311121120927183  0.1000000000000014
        0.6688868879072842  0.6688868879072842  0.1000000000000014
        0.6666659999999993  0.3333330000000032  0.0992218869917920
        0.3333330000000032  0.6666659999999993  0.1007781130082108
        0.3333326666666659  0.1666663333333366  0.3364000000000000
        0.4999996666666698  -0.0000006666666674  0.3364000000000000
        0.3333326666666659  0.6666663333333366  0.3364000000000000
        0.4999996666666698  0.4999993333333327  0.3364000000000000
        0.8333326666666659  0.1666663333333366  0.3364000000000000
        0.9999996666666698  -0.0000006666666674  0.3364000000000000
        0.8333326666666659  0.6666663333333366  0.3364000000000000
        0.9999996666666698  0.4999993333333327  0.3364000000000000