Graphene-BC3 Top with lattice parameter 
   1.00000000000000     
     4.3673661112849240    2.5215000000000001    0.0000000000000000
    -4.3673661112849240    2.5215000000000001    0.0000000000000000
     0.0000000000000000    0.0000000000000000   15.0000000000000000
   B    C 
     2    14
Direct
  0.3383345736653389  0.6691672705936641  0.1002345182216310
  0.6716675912720015  0.3358336419881776  0.1002345048961847
  0.1646315698143709  0.3217571996810636  0.0999105023323271
  0.3242605908059336  0.1621304423240255  0.0999095439653098
  0.1646327286188447  0.8428750080847083  0.0999105000240400
  0.8453777062716640  0.1621277776219563  0.0999120005071322
  0.6857528165190163  0.8428754328829842  0.0999125786519948
  0.8453790786491915  0.6832491808213210  0.0999119947097255
  0.1665651452826222  0.3331374282716977  0.3288833428589708
  0.3331348454816361  0.1665672207626275  0.3288844576104246
  0.1665651467069262  0.8334273113911511  0.3288833425445666
  0.3333265971168074  0.6666630988338841  0.3285855886182532
  0.6666599797151941  0.3333297864630471  0.3285855877387630
  0.8334248043562509  0.1665677924711688  0.3288809423180549
  0.6668540260714794  0.8334268102685365  0.3288796531161223
  0.8334247996527417  0.6668565975399958  0.3288809418865197
 
  0.00000000E+00  0.00000000E+00  0.00000000E+00
  0.00000000E+00  0.00000000E+00  0.00000000E+00
  0.00000000E+00  0.00000000E+00  0.00000000E+00
  0.00000000E+00  0.00000000E+00  0.00000000E+00
  0.00000000E+00  0.00000000E+00  0.00000000E+00
  0.00000000E+00  0.00000000E+00  0.00000000E+00
  0.00000000E+00  0.00000000E+00  0.00000000E+00
  0.00000000E+00  0.00000000E+00  0.00000000E+00
  0.00000000E+00  0.00000000E+00  0.00000000E+00
  0.00000000E+00  0.00000000E+00  0.00000000E+00
  0.00000000E+00  0.00000000E+00  0.00000000E+00
  0.00000000E+00  0.00000000E+00  0.00000000E+00
  0.00000000E+00  0.00000000E+00  0.00000000E+00
  0.00000000E+00  0.00000000E+00  0.00000000E+00
  0.00000000E+00  0.00000000E+00  0.00000000E+00
  0.00000000E+00  0.00000000E+00  0.00000000E+00
