Graphene-B4C3 Hollow_1 with lattice para
   1.00000000000000     
     4.1967591067393899    2.4230000000000000    0.0000000000000000
    -4.1967591067393899    2.4230000000000000    0.0000000000000000
     0.0000000000000000    0.0000000000000000   15.0000000000000000
    C 
    8
Direct
  0.0883993642886707  0.4092176084507000  0.3375925726432087
  0.2551014687768073  0.2425991972975231  0.3376909647461236
  0.0884144041215239  0.9092194948770893  0.3375815197836507
  0.2551029320685167  0.7425271951506569  0.3375800850641644
  0.5883404493232200  0.4091804426523452  0.3375710996808883
  0.7550162670491594  0.2424959523570731  0.3375797017814749
  0.5883329482557085  0.9092150817464163  0.3376973537815435
  0.7549672224319843  0.7424750712944662  0.3375897568565663

