Graphene-B4C3 Hollow 1 with lattice para
   1.00000000000000     
     4.2045533353734497    2.4275000000000002    0.0000000000000000
    -4.2045533353734497    2.4275000000000002    0.0000000000000000
     0.0000000000000000    0.0000000000000000   15.0000000000000000
   B    C 
     4    11
Direct
  0.0561098409958842 -0.0435284452464098  0.1025110894743775
  0.4110966076292196 -0.0432380548346596  0.1003017524309780
  0.0564127060359012  0.3115288822498764  0.1002702032722529
  0.7015031333881582  0.6011233240611346  0.1002621025616256
  0.3795762048666692  0.2798508265022970  0.1000048611767996
  0.7327806207203437 -0.0438794055926454  0.1016618829841811
  0.0562037521921490  0.6327318613602703  0.0999507594675644
  0.0655218594993595  0.4296218360457449  0.3383854903848012
  0.2322428297711723  0.2629534855265671  0.3382580144891637
  0.0654376872610267  0.9294166546999486  0.3381302963356506
  0.2322304007389234  0.7625862184269626  0.3383975298389491
  0.5656743709071778  0.4297245309971428  0.3383637096096296
  0.7322835356903203  0.2626203751510200  0.3384593363083438
  0.5656582049069511  0.9297245740982023  0.3385547597867681
  0.7321178009522942  0.7626417809990158  0.3382675452122352
 
  0.00000000E+00  0.00000000E+00  0.00000000E+00
  0.00000000E+00  0.00000000E+00  0.00000000E+00
  0.00000000E+00  0.00000000E+00  0.00000000E+00
  0.00000000E+00  0.00000000E+00  0.00000000E+00
  0.00000000E+00  0.00000000E+00  0.00000000E+00
  0.00000000E+00  0.00000000E+00  0.00000000E+00
  0.00000000E+00  0.00000000E+00  0.00000000E+00
  0.00000000E+00  0.00000000E+00  0.00000000E+00
  0.00000000E+00  0.00000000E+00  0.00000000E+00
  0.00000000E+00  0.00000000E+00  0.00000000E+00
  0.00000000E+00  0.00000000E+00  0.00000000E+00
  0.00000000E+00  0.00000000E+00  0.00000000E+00
  0.00000000E+00  0.00000000E+00  0.00000000E+00
  0.00000000E+00  0.00000000E+00  0.00000000E+00
  0.00000000E+00  0.00000000E+00  0.00000000E+00
