Graphene-B4C3 Top with lattice parameter
   1.00000000000000     
     4.2002232083545259    2.4249999999999994    0.0000000000000000
    -4.2002232083545259    2.4249999999999994    0.0000000000000000
     0.0000000000000000    0.0000000000000000   15.0000000000000000
   B    C 
     4    11
Direct
  0.0040580614233846  0.0027060719986226  0.1011729457096975
  0.3592420266568734  0.0029838955353567  0.1005451558764417
  0.0037609658356852  0.3575897760897073  0.1005459652109014
  0.6491484321480274  0.6475064219815462  0.1005424133639830
  0.3277319631656608  0.3260890654855437  0.1005426080697084
  0.6806469624619137  0.0029831871372912  0.1005444185934953
  0.0037649954343957  0.6789928228656100  0.1005420458993462
  0.0001309762730894  0.5000612844755278  0.3348888402208259
  0.1667892827371162  0.3334587942806713  0.3349225619349182
  0.0001172750993251  0.0000722783420552  0.3348505907700297
  0.1668323615185121  0.8334021099393125  0.3349265629854825
  0.5001300110515173  0.5000997915354685  0.3348915222609757
  0.6667847934118054  0.3334074609655713  0.3347870329191777
  0.5000904353770799  0.0000581010374189  0.3348872688848030
  0.6667321240723073  0.8333562716636219  0.3349227339668968
 
  0.00000000E+00  0.00000000E+00  0.00000000E+00
  0.00000000E+00  0.00000000E+00  0.00000000E+00
  0.00000000E+00  0.00000000E+00  0.00000000E+00
  0.00000000E+00  0.00000000E+00  0.00000000E+00
  0.00000000E+00  0.00000000E+00  0.00000000E+00
  0.00000000E+00  0.00000000E+00  0.00000000E+00
  0.00000000E+00  0.00000000E+00  0.00000000E+00
  0.00000000E+00  0.00000000E+00  0.00000000E+00
  0.00000000E+00  0.00000000E+00  0.00000000E+00
  0.00000000E+00  0.00000000E+00  0.00000000E+00
  0.00000000E+00  0.00000000E+00  0.00000000E+00
  0.00000000E+00  0.00000000E+00  0.00000000E+00
  0.00000000E+00  0.00000000E+00  0.00000000E+00
  0.00000000E+00  0.00000000E+00  0.00000000E+00
  0.00000000E+00  0.00000000E+00  0.00000000E+00
