Graphene-B4C3 Top with lattice parameter
   1.00000000000000     
     4.2002232083545259    2.4249999999999994    0.0000000000000000
    -4.2002232083545259    2.4249999999999994    0.0000000000000000
     0.0000000000000000    0.0000000000000000   15.0000000000000000
   B    C 
     4    11
Direct
  0.0042045521336536  0.0028839755040863  0.1068007224410706
  0.3589946189645347  0.0030807429428496  0.1005298539047140
  0.0037224082058198  0.3572865545762219  0.1005236390751342
  0.6497778540748237  0.6478653961979811  0.1005408380188687
  0.3278644192432929  0.3263286817606586  0.1011989537593234
  0.6805700747937145  0.0027657833664153  0.1012456812351402
  0.0040072040252494  0.6791272441731810  0.1012521857618183
  0.0000745497289534  0.4999334902420178  0.3339898507723815
  0.1665478106221483  0.3333367143668974  0.3339609369648980
  0.0000536810534805  0.0000176503441265  0.3338824184242818
  0.1667566528240620  0.8334457668351538  0.3339674840878965
  0.5001385707593733  0.5001270661675272  0.3339945712883953
  0.6666529120075962  0.3333402877130901  0.3336808018455973
  0.4999417948918688 -0.0000079004008450  0.3339857754028507
  0.6666535633381222  0.8332358795439639  0.3339589536843119
 
  0.00000000E+00  0.00000000E+00  0.00000000E+00
  0.00000000E+00  0.00000000E+00  0.00000000E+00
  0.00000000E+00  0.00000000E+00  0.00000000E+00
  0.00000000E+00  0.00000000E+00  0.00000000E+00
  0.00000000E+00  0.00000000E+00  0.00000000E+00
  0.00000000E+00  0.00000000E+00  0.00000000E+00
  0.00000000E+00  0.00000000E+00  0.00000000E+00
  0.00000000E+00  0.00000000E+00  0.00000000E+00
  0.00000000E+00  0.00000000E+00  0.00000000E+00
  0.00000000E+00  0.00000000E+00  0.00000000E+00
  0.00000000E+00  0.00000000E+00  0.00000000E+00
  0.00000000E+00  0.00000000E+00  0.00000000E+00
  0.00000000E+00  0.00000000E+00  0.00000000E+00
  0.00000000E+00  0.00000000E+00  0.00000000E+00
  0.00000000E+00  0.00000000E+00  0.00000000E+00
