Graphene-B4C3 Top with lattice parameter
   1.00000000000000     
     4.2002232083545259    2.4249999999999994    0.0000000000000000
    -4.2002232083545259    2.4249999999999994    0.0000000000000000
     0.0000000000000000    0.0000000000000000   15.0000000000000000
   B    C 
     4    11
Direct
  0.0041799615204192  0.0027650068502302  0.1188737571979419
  0.3568645297611335  0.0030569999882011  0.0979634751413765
  0.0039075357138883  0.3551688555815002  0.0979648323725054
  0.6517725034693059  0.6501042931538409  0.0979564010860130
  0.3265755018824484  0.3248274660947660  0.1002628537954120
  0.6821307638077893  0.0031282654346874  0.1002449471458980
  0.0038522520072833  0.6803775671121699  0.1002383201084575
 -0.0000796719906103  0.5000109980784677  0.3337578551818951
  0.1666214025887472  0.3331512376155577  0.3338103385899858
  0.9999999614035802  0.0000027699366127  0.3336307379148043
  0.1665389268734383  0.8333843692825063  0.3338138412278351
  0.4999844416021073  0.4999072331950252  0.3337613306129030
  0.6666694111028717  0.3333322388253520  0.3336669330728863
  0.5000883593335891  0.0000799623330825  0.3337572065816646
  0.6668547875907017  0.8334700698513258  0.3338098366371042
 
  0.00000000E+00  0.00000000E+00  0.00000000E+00
  0.00000000E+00  0.00000000E+00  0.00000000E+00
  0.00000000E+00  0.00000000E+00  0.00000000E+00
  0.00000000E+00  0.00000000E+00  0.00000000E+00
  0.00000000E+00  0.00000000E+00  0.00000000E+00
  0.00000000E+00  0.00000000E+00  0.00000000E+00
  0.00000000E+00  0.00000000E+00  0.00000000E+00
  0.00000000E+00  0.00000000E+00  0.00000000E+00
  0.00000000E+00  0.00000000E+00  0.00000000E+00
  0.00000000E+00  0.00000000E+00  0.00000000E+00
  0.00000000E+00  0.00000000E+00  0.00000000E+00
  0.00000000E+00  0.00000000E+00  0.00000000E+00
  0.00000000E+00  0.00000000E+00  0.00000000E+00
  0.00000000E+00  0.00000000E+00  0.00000000E+00
  0.00000000E+00  0.00000000E+00  0.00000000E+00
