Graphene-BC3 Hollow with lattice paramet
   1.00000000000000     
     4.3136725362502881    2.4904999999999999    0.0000000000000000
    -4.3136725362502881    2.4904999999999999    0.0000000000000000
     0.0000000000000000    0.0000000000000000   15.0000000000000000
   B    C 
     2    14
Direct
  0.3382336200015653  0.6691160864622819  0.1007189796199479
  0.6715675420656068  0.3357839644465577  0.1003940674103996
  0.1649152588244885  0.3224788992260246  0.1004268210895444
  0.3248591681309335  0.1624295666966013  0.1004436942676721
  0.1649146002541003  0.8424346961900568  0.1004271606882009
  0.8449171497306778  0.1624271561710364  0.1004043906187042
  0.6848657417240408  0.8424314049541628  0.1003888618577669
  0.8449167489727746  0.6824886559540427  0.1004048472550603
  0.3334490034648643  0.1667245825983410  0.3251340713397914
  0.5001357775483278  0.0001250507523409  0.3251093598820068
  0.3334316242022271  0.6667158801569227  0.3248289776931393
  0.5001357597338291  0.5000108266459976  0.3251093692211964
  0.8334272098486546  0.1667256097769763  0.3251291415757100
  0.0001020093957516  0.0000510702912100  0.3251079824937210
  0.8334271841518207  0.6667017074090559  0.3251291434562590
  0.0000269352836699  0.5000135089350864  0.3251097981975518
 
  0.00000000E+00  0.00000000E+00  0.00000000E+00
  0.00000000E+00  0.00000000E+00  0.00000000E+00
  0.00000000E+00  0.00000000E+00  0.00000000E+00
  0.00000000E+00  0.00000000E+00  0.00000000E+00
  0.00000000E+00  0.00000000E+00  0.00000000E+00
  0.00000000E+00  0.00000000E+00  0.00000000E+00
  0.00000000E+00  0.00000000E+00  0.00000000E+00
  0.00000000E+00  0.00000000E+00  0.00000000E+00
  0.00000000E+00  0.00000000E+00  0.00000000E+00
  0.00000000E+00  0.00000000E+00  0.00000000E+00
  0.00000000E+00  0.00000000E+00  0.00000000E+00
  0.00000000E+00  0.00000000E+00  0.00000000E+00
  0.00000000E+00  0.00000000E+00  0.00000000E+00
  0.00000000E+00  0.00000000E+00  0.00000000E+00
  0.00000000E+00  0.00000000E+00  0.00000000E+00
  0.00000000E+00  0.00000000E+00  0.00000000E+00
