Graphene-Borophene Top with lattice para
   1.00000000000000     
     4.3162706124616408    2.4919999999999995    0.0000000000000000
    -4.3162706124616408    2.4919999999999995    0.0000000000000000
     0.0000000000000000    0.0000000000000000   15.0000000000000000
   B    C 
     8     8
Direct
  0.6685210905710745  0.0000257901701546  0.1673807760124042
  0.3315036995990828  0.0000257901701546  0.1673807760124042
 -0.0000257901701546  0.3314779094289280  0.1673807760124042
 -0.0000257901701546  0.6684953004009200  0.1673807760124042
  0.3315036995990828  0.3314779094289280  0.1673807760124042
  0.6685210905710743  0.6684953004009201  0.1673807760124042
  0.6666659999999993  0.3333330000000032  0.1544807546624047
  0.3333330000000032  0.6666659999999993  0.1802582996109784
  0.1666474375652873  0.3332958751305793  0.4004453026023095
  0.3333265842728356  0.1666627921364155  0.4002945923367868
  0.1666474375652874  0.8333515624347152  0.4004453026023095
  0.3333330000000032  0.6666659999999993  0.4004613782130136
  0.6666659999999993  0.3333330000000032  0.4001618932885826
  0.8333362078635871  0.1666627921364155  0.4002945923367868
  0.6667031248694227  0.8333515624347152  0.4004453026023095
  0.8333362078635871  0.6666724157271670  0.4002945923367868
 
  0.00000000E+00  0.00000000E+00  0.00000000E+00
  0.00000000E+00  0.00000000E+00  0.00000000E+00
  0.00000000E+00  0.00000000E+00  0.00000000E+00
  0.00000000E+00  0.00000000E+00  0.00000000E+00
  0.00000000E+00  0.00000000E+00  0.00000000E+00
  0.00000000E+00  0.00000000E+00  0.00000000E+00
  0.00000000E+00  0.00000000E+00  0.00000000E+00
  0.00000000E+00  0.00000000E+00  0.00000000E+00
  0.00000000E+00  0.00000000E+00  0.00000000E+00
  0.00000000E+00  0.00000000E+00  0.00000000E+00
  0.00000000E+00  0.00000000E+00  0.00000000E+00
  0.00000000E+00  0.00000000E+00  0.00000000E+00
  0.00000000E+00  0.00000000E+00  0.00000000E+00
  0.00000000E+00  0.00000000E+00  0.00000000E+00
  0.00000000E+00  0.00000000E+00  0.00000000E+00
  0.00000000E+00  0.00000000E+00  0.00000000E+00
