Graphene-Borophene Top with lattice para
   1.00000000000000     
     4.3162706124616408    2.4919999999999995    0.0000000000000000
    -4.3162706124616408    2.4919999999999995    0.0000000000000000
     0.0000000000000000    0.0000000000000000   15.0000000000000000
   B    C 
     8     8
Direct
  0.6695999522699075 -0.0001333041808670  0.1652420998797756
  0.3302657435492281 -0.0001333041808670  0.1652420998797756
  0.0001333041808670  0.3303990477300950  0.1652420998797756
  0.0001333041808670  0.6697332564507745  0.1652420998797756
  0.3302657435492281  0.3303990477300950  0.1652420998797756
  0.6695999522699075  0.6697332564507746  0.1652420998797756
  0.6666659999999993  0.3333330000000032  0.1655391474605773
  0.3333330000000032  0.6666659999999993  0.1776463557551755
  0.1696129129702064  0.3392268259404174  0.4008685069252817
  0.3390623365744302  0.1695306682872128  0.4009123516269009
  0.1696129129702064  0.8303860870297960  0.4008685069252817
  0.3333330000000032  0.6666659999999993  0.4008727367586058
  0.6666659999999993  0.3333330000000032  0.4010132517571326
  0.8304683317127896  0.1695306682872128  0.4009123516269009
  0.6607721740595848  0.8303860870297960  0.4008685069252817
  0.8304683317127896  0.6609366634255721  0.4009123516269009
 
  0.00000000E+00  0.00000000E+00  0.00000000E+00
  0.00000000E+00  0.00000000E+00  0.00000000E+00
  0.00000000E+00  0.00000000E+00  0.00000000E+00
  0.00000000E+00  0.00000000E+00  0.00000000E+00
  0.00000000E+00  0.00000000E+00  0.00000000E+00
  0.00000000E+00  0.00000000E+00  0.00000000E+00
  0.00000000E+00  0.00000000E+00  0.00000000E+00
  0.00000000E+00  0.00000000E+00  0.00000000E+00
  0.00000000E+00  0.00000000E+00  0.00000000E+00
  0.00000000E+00  0.00000000E+00  0.00000000E+00
  0.00000000E+00  0.00000000E+00  0.00000000E+00
  0.00000000E+00  0.00000000E+00  0.00000000E+00
  0.00000000E+00  0.00000000E+00  0.00000000E+00
  0.00000000E+00  0.00000000E+00  0.00000000E+00
  0.00000000E+00  0.00000000E+00  0.00000000E+00
  0.00000000E+00  0.00000000E+00  0.00000000E+00
