Graphene-BC3 Top with lattice parameter 
   1.00000000000000     
     4.4167295593006344    2.5499999999999985    0.0000000000000000
    -4.4167295593006344    2.5499999999999985    0.0000000000000000
     0.0000000000000000    0.0000000000000000   15.0000000000000000
   B    C 
     2    14
Direct
  0.3384269498889638  0.6692115220398375  0.0997667209051088
  0.6717576904519339  0.3358780851125266  0.0997667229172332
  0.1643574110647040  0.3210682791931587  0.0994560724042402
  0.3236189992370286  0.1618077603460645  0.0994499869024823
  0.1643552400167602  0.8432860285086908  0.0994558163214194
  0.8458390875370244  0.1618073241755758  0.0994680772499691
  0.6865802422354000  0.8432900513657485  0.0994739748849345
  0.8458366624751675  0.6840290311276878  0.0994678223602684
  0.1664635816531445  0.3330727338478654  0.3293355286220542
  0.3330234072570873  0.1665122907868632  0.3293366114284290
  0.1664635761284778  0.8333916994981443  0.3293355252348181
  0.3332346664072985  0.6666179154912772  0.3290444423331048
  0.6665681455899498  0.3332844949549136  0.3290444435243810
  0.8333424738609608  0.1665129738961825  0.3293331778732175
  0.6667813824999510  0.8333911176685816  0.3293319022049666
  0.8333424836961675  0.6668306919868912  0.3293331748333932
 
  0.00000000E+00  0.00000000E+00  0.00000000E+00
  0.00000000E+00  0.00000000E+00  0.00000000E+00
  0.00000000E+00  0.00000000E+00  0.00000000E+00
  0.00000000E+00  0.00000000E+00  0.00000000E+00
  0.00000000E+00  0.00000000E+00  0.00000000E+00
  0.00000000E+00  0.00000000E+00  0.00000000E+00
  0.00000000E+00  0.00000000E+00  0.00000000E+00
  0.00000000E+00  0.00000000E+00  0.00000000E+00
  0.00000000E+00  0.00000000E+00  0.00000000E+00
  0.00000000E+00  0.00000000E+00  0.00000000E+00
  0.00000000E+00  0.00000000E+00  0.00000000E+00
  0.00000000E+00  0.00000000E+00  0.00000000E+00
  0.00000000E+00  0.00000000E+00  0.00000000E+00
  0.00000000E+00  0.00000000E+00  0.00000000E+00
  0.00000000E+00  0.00000000E+00  0.00000000E+00
  0.00000000E+00  0.00000000E+00  0.00000000E+00
